*SPEF "ieee 1481-1999"
*DESIGN "alu_8bit"
*DATE "15:46:21 Thursday August 20, 2026"
*VENDOR "The OpenROAD Project"
*PROGRAM "OpenROAD"
*VERSION "edf00dff99f6c40d67a30c0e22a8191c5d2ed9d6"
*DESIGN_FLOW "NAME_SCOPE LOCAL" "PIN_CAP NONE"
*DIVIDER /
*DELIMITER :
*BUS_DELIMITER []
*T_UNIT 1 NS
*C_UNIT 1 PF
*R_UNIT 1 OHM
*L_UNIT 1 HENRY

*NAME_MAP
*1 A[0]
*2 A[1]
*3 A[2]
*4 A[3]
*5 A[4]
*6 A[5]
*7 A[6]
*8 A[7]
*9 B[0]
*10 B[1]
*11 B[2]
*12 B[3]
*13 B[4]
*14 B[5]
*15 B[6]
*16 B[7]
*19 carry
*20 opcode[0]
*21 opcode[1]
*22 opcode[2]
*23 result[0]
*24 result[1]
*25 result[2]
*26 result[3]
*27 result[4]
*28 result[5]
*29 result[6]
*30 result[7]
*31 zero
*32 _000_
*33 _001_
*34 _002_
*35 _003_
*36 _004_
*37 _005_
*38 _006_
*39 _007_
*40 _008_
*41 _009_
*42 _010_
*43 _011_
*44 _012_
*45 _013_
*46 _014_
*47 _015_
*48 _016_
*49 _017_
*50 _018_
*51 _019_
*52 _020_
*53 _021_
*54 _022_
*55 _023_
*56 _024_
*57 _025_
*58 _026_
*59 _027_
*60 _028_
*61 _029_
*62 _030_
*63 _031_
*64 _032_
*65 _033_
*66 _034_
*67 _035_
*68 _036_
*69 _037_
*70 _038_
*71 _039_
*72 _040_
*73 _041_
*74 _042_
*75 _043_
*76 _044_
*77 _045_
*78 _046_
*79 _047_
*80 _048_
*81 _049_
*82 _050_
*83 _051_
*84 _052_
*85 _053_
*86 _054_
*87 _055_
*88 _056_
*89 _057_
*90 _058_
*91 _059_
*92 _060_
*93 _061_
*94 _062_
*95 _063_
*96 _064_
*97 _065_
*98 _066_
*99 _067_
*100 _068_
*101 _069_
*102 _070_
*103 _071_
*104 _072_
*105 _073_
*106 _074_
*107 _075_
*108 _076_
*109 _077_
*110 _078_
*111 _079_
*112 _080_
*113 _081_
*114 _082_
*115 _083_
*116 _084_
*117 _085_
*118 _086_
*119 _087_
*120 _088_
*121 _089_
*122 _090_
*123 _091_
*124 _092_
*125 _093_
*126 _094_
*127 _095_
*128 _096_
*129 _097_
*130 _098_
*131 _099_
*132 _100_
*133 _101_
*134 _102_
*135 _103_
*136 _104_
*137 _105_
*138 _106_
*139 _107_
*140 _108_
*141 _109_
*142 _110_
*143 _111_
*144 _112_
*145 _113_
*146 _114_
*147 _115_
*148 _116_
*149 _117_
*150 _118_
*151 _119_
*152 _120_
*153 net1
*154 net10
*155 net11
*156 net12
*157 net13
*158 net14
*159 net15
*160 net16
*161 net17
*162 net18
*163 net19
*164 net2
*165 net20
*166 net21
*167 net22
*168 net23
*169 net24
*170 net25
*171 net26
*172 net27
*173 net28
*174 net29
*175 net3
*176 net30
*177 net31
*178 net32
*179 net4
*180 net5
*181 net6
*182 net7
*183 net8
*184 net9
*185 FILLER_0_102
*186 FILLER_0_15
*187 FILLER_0_27
*188 FILLER_0_29
*189 FILLER_0_3
*190 FILLER_0_34
*191 FILLER_0_42
*192 FILLER_0_57
*193 FILLER_0_71
*194 FILLER_0_83
*195 FILLER_0_85
*196 FILLER_0_90
*197 FILLER_10_102
*198 FILLER_10_22
*199 FILLER_10_29
*200 FILLER_10_3
*201 FILLER_10_33
*202 FILLER_10_40
*203 FILLER_10_57
*204 FILLER_10_69
*205 FILLER_10_80
*206 FILLER_11_102
*207 FILLER_11_11
*208 FILLER_11_20
*209 FILLER_11_32
*210 FILLER_11_40
*211 FILLER_11_49
*212 FILLER_11_55
*213 FILLER_11_57
*214 FILLER_11_65
*215 FILLER_12_27
*216 FILLER_12_29
*217 FILLER_12_3
*218 FILLER_12_46
*219 FILLER_12_54
*220 FILLER_12_65
*221 FILLER_12_69
*222 FILLER_12_83
*223 FILLER_13_101
*224 FILLER_13_15
*225 FILLER_13_21
*226 FILLER_13_27
*227 FILLER_13_3
*228 FILLER_13_45
*229 FILLER_13_53
*230 FILLER_13_57
*231 FILLER_13_62
*232 FILLER_13_68
*233 FILLER_13_77
*234 FILLER_13_81
*235 FILLER_14_15
*236 FILLER_14_3
*237 FILLER_14_47
*238 FILLER_14_59
*239 FILLER_14_73
*240 FILLER_14_81
*241 FILLER_14_85
*242 FILLER_15_100
*243 FILLER_15_15
*244 FILLER_15_27
*245 FILLER_15_3
*246 FILLER_15_44
*247 FILLER_15_54
*248 FILLER_15_57
*249 FILLER_15_80
*250 FILLER_15_92
*251 FILLER_16_15
*252 FILLER_16_27
*253 FILLER_16_29
*254 FILLER_16_3
*255 FILLER_16_37
*256 FILLER_16_49
*257 FILLER_16_57
*258 FILLER_16_63
*259 FILLER_16_76
*260 FILLER_16_85
*261 FILLER_16_97
*262 FILLER_1_100
*263 FILLER_1_15
*264 FILLER_1_3
*265 FILLER_1_39
*266 FILLER_1_51
*267 FILLER_1_55
*268 FILLER_1_62
*269 FILLER_1_73
*270 FILLER_1_77
*271 FILLER_1_92
*272 FILLER_2_15
*273 FILLER_2_27
*274 FILLER_2_29
*275 FILLER_2_3
*276 FILLER_2_57
*277 FILLER_2_63
*278 FILLER_2_82
*279 FILLER_2_85
*280 FILLER_2_99
*281 FILLER_3_102
*282 FILLER_3_15
*283 FILLER_3_25
*284 FILLER_3_3
*285 FILLER_3_37
*286 FILLER_3_50
*287 FILLER_3_57
*288 FILLER_3_65
*289 FILLER_3_75
*290 FILLER_3_83
*291 FILLER_4_10
*292 FILLER_4_27
*293 FILLER_4_34
*294 FILLER_4_47
*295 FILLER_4_59
*296 FILLER_4_6
*297 FILLER_4_81
*298 FILLER_4_85
*299 FILLER_4_93
*300 FILLER_5_102
*301 FILLER_5_28
*302 FILLER_5_3
*303 FILLER_5_45
*304 FILLER_5_53
*305 FILLER_5_57
*306 FILLER_5_65
*307 FILLER_5_74
*308 FILLER_5_82
*309 FILLER_6_101
*310 FILLER_6_17
*311 FILLER_6_25
*312 FILLER_6_29
*313 FILLER_6_56
*314 FILLER_6_68
*315 FILLER_6_82
*316 FILLER_7_19
*317 FILLER_7_31
*318 FILLER_7_43
*319 FILLER_7_50
*320 FILLER_7_57
*321 FILLER_7_7
*322 FILLER_7_75
*323 FILLER_7_79
*324 FILLER_7_83
*325 FILLER_7_98
*326 FILLER_8_23
*327 FILLER_8_27
*328 FILLER_8_43
*329 FILLER_8_55
*330 FILLER_8_64
*331 FILLER_8_76
*332 FILLER_8_85
*333 FILLER_9_20
*334 FILLER_9_53
*335 FILLER_9_72
*336 FILLER_9_80
*337 PHY_EDGE_ROW_0_Left_17
*338 PHY_EDGE_ROW_0_Right_0
*339 PHY_EDGE_ROW_10_Left_27
*340 PHY_EDGE_ROW_10_Right_10
*341 PHY_EDGE_ROW_11_Left_28
*342 PHY_EDGE_ROW_11_Right_11
*343 PHY_EDGE_ROW_12_Left_29
*344 PHY_EDGE_ROW_12_Right_12
*345 PHY_EDGE_ROW_13_Left_30
*346 PHY_EDGE_ROW_13_Right_13
*347 PHY_EDGE_ROW_14_Left_31
*348 PHY_EDGE_ROW_14_Right_14
*349 PHY_EDGE_ROW_15_Left_32
*350 PHY_EDGE_ROW_15_Right_15
*351 PHY_EDGE_ROW_16_Left_33
*352 PHY_EDGE_ROW_16_Right_16
*353 PHY_EDGE_ROW_1_Left_18
*354 PHY_EDGE_ROW_1_Right_1
*355 PHY_EDGE_ROW_2_Left_19
*356 PHY_EDGE_ROW_2_Right_2
*357 PHY_EDGE_ROW_3_Left_20
*358 PHY_EDGE_ROW_3_Right_3
*359 PHY_EDGE_ROW_4_Left_21
*360 PHY_EDGE_ROW_4_Right_4
*361 PHY_EDGE_ROW_5_Left_22
*362 PHY_EDGE_ROW_5_Right_5
*363 PHY_EDGE_ROW_6_Left_23
*364 PHY_EDGE_ROW_6_Right_6
*365 PHY_EDGE_ROW_7_Left_24
*366 PHY_EDGE_ROW_7_Right_7
*367 PHY_EDGE_ROW_8_Left_25
*368 PHY_EDGE_ROW_8_Right_8
*369 PHY_EDGE_ROW_9_Left_26
*370 PHY_EDGE_ROW_9_Right_9
*371 TAP_TAPCELL_ROW_0_34
*372 TAP_TAPCELL_ROW_0_35
*373 TAP_TAPCELL_ROW_0_36
*374 TAP_TAPCELL_ROW_10_50
*375 TAP_TAPCELL_ROW_10_51
*376 TAP_TAPCELL_ROW_11_52
*377 TAP_TAPCELL_ROW_12_53
*378 TAP_TAPCELL_ROW_12_54
*379 TAP_TAPCELL_ROW_13_55
*380 TAP_TAPCELL_ROW_14_56
*381 TAP_TAPCELL_ROW_14_57
*382 TAP_TAPCELL_ROW_15_58
*383 TAP_TAPCELL_ROW_16_59
*384 TAP_TAPCELL_ROW_16_60
*385 TAP_TAPCELL_ROW_16_61
*386 TAP_TAPCELL_ROW_1_37
*387 TAP_TAPCELL_ROW_2_38
*388 TAP_TAPCELL_ROW_2_39
*389 TAP_TAPCELL_ROW_3_40
*390 TAP_TAPCELL_ROW_4_41
*391 TAP_TAPCELL_ROW_4_42
*392 TAP_TAPCELL_ROW_5_43
*393 TAP_TAPCELL_ROW_6_44
*394 TAP_TAPCELL_ROW_6_45
*395 TAP_TAPCELL_ROW_7_46
*396 TAP_TAPCELL_ROW_8_47
*397 TAP_TAPCELL_ROW_8_48
*398 TAP_TAPCELL_ROW_9_49
*399 _121_
*400 _122_
*401 _123_
*402 _124_
*403 _125_
*404 _126_
*405 _127_
*406 _128_
*407 _129_
*408 _130_
*409 _131_
*410 _132_
*411 _133_
*412 _134_
*413 _135_
*414 _136_
*415 _137_
*416 _138_
*417 _139_
*418 _140_
*419 _141_
*420 _142_
*421 _143_
*422 _144_
*423 _145_
*424 _146_
*425 _147_
*426 _148_
*427 _149_
*428 _150_
*429 _151_
*430 _152_
*431 _153_
*432 _154_
*433 _155_
*434 _156_
*435 _157_
*436 _158_
*437 _159_
*438 _160_
*439 _161_
*440 _162_
*441 _163_
*442 _164_
*443 _165_
*444 _166_
*445 _167_
*446 _168_
*447 _169_
*448 _170_
*449 _171_
*450 _172_
*451 _173_
*452 _174_
*453 _175_
*454 _176_
*455 _177_
*456 _178_
*457 _179_
*458 _180_
*459 _181_
*460 _182_
*461 _183_
*462 _184_
*463 _185_
*464 _186_
*465 _187_
*466 _188_
*467 _189_
*468 _190_
*469 _191_
*470 _192_
*471 _193_
*472 _194_
*473 _195_
*474 _196_
*475 _197_
*476 _198_
*477 _199_
*478 _200_
*479 _201_
*480 _202_
*481 _203_
*482 _204_
*483 _205_
*484 _206_
*485 _207_
*486 _208_
*487 _209_
*488 _210_
*489 _211_
*490 _212_
*491 _213_
*492 _214_
*493 _215_
*494 _216_
*495 _217_
*496 _218_
*497 _219_
*498 _220_
*499 _221_
*500 _222_
*501 _223_
*502 _224_
*503 _225_
*504 _226_
*505 _227_
*506 _228_
*507 _229_
*508 _230_
*509 _231_
*510 _232_
*511 _233_
*512 _234_
*513 _235_
*514 _236_
*515 _237_
*516 _238_
*517 _239_
*518 _240_
*519 _241_
*520 _242_
*521 _243_
*522 _244_
*523 _245_
*524 _246_
*525 _247_
*526 _248_
*527 _249_
*528 _250_
*529 _251_
*530 fanout30
*531 fanout31
*532 fanout32
*533 input1
*534 input10
*535 input11
*536 input12
*537 input13
*538 input14
*539 input15
*540 input16
*541 input17
*542 input18
*543 input19
*544 input2
*545 input3
*546 input4
*547 input5
*548 input6
*549 input7
*550 input8
*551 input9
*552 output20
*553 output21
*554 output22
*555 output23
*556 output24
*557 output25
*558 output26
*559 output27
*560 output28
*561 output29

*PORTS
A[0] I
A[1] I
A[2] I
A[3] I
A[4] I
A[5] I
A[6] I
A[7] I
B[0] I
B[1] I
B[2] I
B[3] I
B[4] I
B[5] I
B[6] I
B[7] I
carry O
opcode[0] I
opcode[1] I
opcode[2] I
result[0] O
result[1] O
result[2] O
result[3] O
result[4] O
result[5] O
result[6] O
result[7] O
zero O

*D_NET *1 0.000719799
*CONN
*P A[0] I
*I *533:A I *D sky130_fd_sc_hd__dlymetal6s2s_1
*CAP
1 A[0] 0.000188027
2 *533:A 0.000188027
3 *533:A carry 8.23602e-05
4 *533:A *551:A 0.000222731
5 *533:A *92:16 0
6 *533:A *184:12 3.86529e-05
*RES
1 A[0] *533:A 6.37677 
*END

*D_NET *2 0.000581323
*CONN
*P A[1] I
*I *544:A I *D sky130_fd_sc_hd__clkbuf_2
*CAP
1 A[1] 0.000265163
2 *544:A 0.000265163
3 *544:A *534:A 2.85068e-05
4 *544:A *547:A 2.24901e-05
*RES
1 A[1] *544:A 7.1793 
*END

*D_NET *3 0.00113123
*CONN
*P A[2] I
*I *545:A I *D sky130_fd_sc_hd__clkbuf_2
*CAP
1 A[2] 0.000522133
2 *545:A 0.000522133
3 *545:A result[3] 0
4 *545:A *435:A 8.696e-05
*RES
1 A[2] *545:A 12.99 
*END

*D_NET *4 0.00103662
*CONN
*P A[3] I
*I *546:A I *D sky130_fd_sc_hd__buf_2
*CAP
1 A[3] 0.00051831
2 *546:A 0.00051831
3 *546:A result[3] 0
4 *546:A *536:A 0
5 *546:A *556:A 0
*RES
1 A[3] *546:A 12.645 
*END

*D_NET *5 0.000506743
*CONN
*P A[4] I
*I *547:A I *D sky130_fd_sc_hd__clkbuf_2
*CAP
1 A[4] 0.000221426
2 *547:A 0.000221426
3 *547:A *534:A 0
4 *547:A *537:A 2.24901e-05
5 *547:A *157:12 9.32397e-06
6 *547:A *180:10 9.58678e-06
7 *544:A *547:A 2.24901e-05
*RES
1 A[4] *547:A 5.16003 
*END

*D_NET *6 0.000813073
*CONN
*P A[5] I
*I *548:A I *D sky130_fd_sc_hd__clkbuf_2
*CAP
1 A[5] 0.000399337
2 *548:A 0.000399337
3 *548:A result[5] 0
4 *548:A *538:A 0
5 *548:A *158:18 1.4399e-05
*RES
1 A[5] *548:A 10.44 
*END

*D_NET *7 0.000402418
*CONN
*P A[6] I
*I *549:A I *D sky130_fd_sc_hd__buf_1
*CAP
1 A[6] 0.000158541
2 *549:A 0.000158541
3 *549:A result[7] 8.53361e-05
4 *549:A *421:A2 0
5 *549:A *75:10 0
*RES
1 A[6] *549:A 4.84677 
*END

*D_NET *8 0.000783212
*CONN
*P A[7] I
*I *550:A I *D sky130_fd_sc_hd__clkbuf_1
*CAP
1 A[7] 0.000248438
2 *550:A 0.000248438
3 *550:A result[7] 9.25475e-05
4 *550:A *428:B2 3.62062e-05
5 *550:A *434:A2 4.91924e-05
6 *550:A *540:A 0.00010839
*RES
1 A[7] *550:A 5.84483 
*END

*D_NET *9 0.00101464
*CONN
*P B[0] I
*I *551:A I *D sky130_fd_sc_hd__clkbuf_1
*CAP
1 B[0] 0.000229851
2 *551:A 0.000229851
3 *551:A *540:A 0
4 *551:A *541:A 7.02279e-05
5 *551:A *92:16 0
6 *551:A *107:14 0.000261976
7 *533:A *551:A 0.000222731
*RES
1 B[0] *551:A 8.0435 
*END

*D_NET *10 0.000616035
*CONN
*P B[1] I
*I *534:A I *D sky130_fd_sc_hd__dlymetal6s2s_1
*CAP
1 B[1] 0.000250235
2 *534:A 0.000250235
3 *534:A result[0] 8.28724e-05
4 *534:A *470:A_N 4.18603e-06
5 *534:A *470:B 0
6 *544:A *534:A 2.85068e-05
7 *547:A *534:A 0
*RES
1 B[1] *534:A 6.37677 
*END

*D_NET *11 0.00103527
*CONN
*P B[2] I
*I *535:A I *D sky130_fd_sc_hd__buf_1
*CAP
1 B[2] 0.000517637
2 *535:A 0.000517637
*RES
1 B[2] *535:A 12.645 
*END

*D_NET *12 0.0010037
*CONN
*P B[3] I
*I *536:A I *D sky130_fd_sc_hd__dlymetal6s2s_1
*CAP
1 B[3] 0.000501849
2 *536:A 0.000501849
3 *546:A *536:A 0
*RES
1 B[3] *536:A 12.39 
*END

*D_NET *13 0.000570252
*CONN
*P B[4] I
*I *537:A I *D sky130_fd_sc_hd__buf_1
*CAP
1 B[4] 0.000273881
2 *537:A 0.000273881
3 *537:A *526:C 0
4 *547:A *537:A 2.24901e-05
*RES
1 B[4] *537:A 7.0893 
*END

*D_NET *14 0.000786235
*CONN
*P B[5] I
*I *538:A I *D sky130_fd_sc_hd__buf_1
*CAP
1 B[5] 0.000393118
2 *538:A 0.000393118
3 *548:A *538:A 0
*RES
1 B[5] *538:A 10.35 
*END

*D_NET *15 0.00087992
*CONN
*P B[6] I
*I *539:A I *D sky130_fd_sc_hd__clkbuf_1
*CAP
1 B[6] 0.000430768
2 *539:A 0.000430768
3 *539:A *159:10 1.83847e-05
*RES
1 B[6] *539:A 11.04 
*END

*D_NET *16 0.00145608
*CONN
*P B[7] I
*I *540:A I *D sky130_fd_sc_hd__clkbuf_1
*CAP
1 B[7] 0.000386139
2 *540:A 0.000386139
3 *540:A carry 8.39212e-05
4 *540:A *415:B 6.5398e-05
5 *540:A *434:A2 3.79595e-05
6 *540:A *434:A3 0.000162325
7 *540:A *552:A 0.000141599
8 *540:A *92:16 3.21064e-05
9 *540:A *107:14 0
10 *540:A *160:8 5.21046e-05
11 *550:A *540:A 0.00010839
12 *551:A *540:A 0
*RES
1 B[7] *540:A 9.61157 
*END

*D_NET *19 0.000499839
*CONN
*P carry O
*I *552:X O *D sky130_fd_sc_hd__buf_2
*CAP
1 carry 0.000152941
2 *552:X 0.000152941
3 carry *552:A 2.10433e-05
4 carry *107:14 6.63219e-06
5 *533:A carry 8.23602e-05
6 *540:A carry 8.39212e-05
*RES
1 *552:X carry 4.90503 
*END

*D_NET *20 0.0018829
*CONN
*P opcode[0] I
*I *541:A I *D sky130_fd_sc_hd__buf_1
*CAP
1 opcode[0] 0.000823172
2 *541:A 0.000823172
3 *541:A *542:A 0.000118272
4 *541:A *543:A 0
5 *541:A *90:8 4.80579e-05
6 *541:A *97:8 0
7 *551:A *541:A 7.02279e-05
*RES
1 opcode[0] *541:A 7.1123 
*END

*D_NET *21 0.00161948
*CONN
*P opcode[1] I
*I *542:A I *D sky130_fd_sc_hd__buf_1
*CAP
1 opcode[1] 0.000377085
2 *542:A 0.000377085
3 *542:A *456:B 3.59902e-05
4 *542:A *532:A 2.03321e-05
5 *542:A *543:A 0.000279603
6 *542:A *162:8 5.64565e-05
7 *542:A *163:10 5.38986e-06
8 *542:A *163:12 3.57768e-05
9 *542:A *176:8 0.000118527
10 *542:A *176:10 4.24562e-05
11 *542:A *177:10 0.000152503
12 *541:A *542:A 0.000118272
*RES
1 opcode[1] *542:A 9.27637 
*END

*D_NET *22 0.00115983
*CONN
*P opcode[2] I
*I *543:A I *D sky130_fd_sc_hd__buf_1
*CAP
1 opcode[2] 0.000388049
2 *543:A 0.000388049
3 *543:A *163:10 0.000104132
4 *541:A *543:A 0
5 *542:A *543:A 0.000279603
*RES
1 opcode[2] *543:A 6.78463 
*END

*D_NET *23 0.00131793
*CONN
*P result[0] O
*I *553:X O *D sky130_fd_sc_hd__buf_2
*CAP
1 result[0] 0.000493002
2 *553:X 0.000493002
3 result[0] result[1] 0.000127721
4 result[0] *118:14 6.06649e-05
5 result[0] *152:12 6.06649e-05
6 *534:A result[0] 8.28724e-05
*RES
1 *553:X result[0] 6.28903 
*END

*D_NET *24 0.000721228
*CONN
*P result[1] O
*I *554:X O *D sky130_fd_sc_hd__buf_2
*CAP
1 result[1] 0.00026958
2 *554:X 0.00026958
3 result[1] result[2] 5.43462e-05
4 result[1] *121:8 0
5 result[0] result[1] 0.000127721
*RES
1 *554:X result[1] 5.3931 
*END

*D_NET *25 0.000693763
*CONN
*P result[2] O
*I *555:X O *D sky130_fd_sc_hd__buf_2
*CAP
1 result[2] 0.000319709
2 *555:X 0.000319709
3 result[2] *555:A 0
4 result[1] result[2] 5.43462e-05
*RES
1 *555:X result[2] 7.17697 
*END

*D_NET *26 0.00110226
*CONN
*P result[3] O
*I *556:X O *D sky130_fd_sc_hd__buf_2
*CAP
1 result[3] 0.000551131
2 *556:X 0.000551131
3 *545:A result[3] 0
4 *546:A result[3] 0
*RES
1 *556:X result[3] 12.57 
*END

*D_NET *27 0.000760134
*CONN
*P result[4] O
*I *557:X O *D sky130_fd_sc_hd__buf_2
*CAP
1 result[4] 0.00036631
2 *557:X 0.00036631
3 result[4] result[5] 0
4 result[4] result[6] 0
5 result[4] *557:A 2.75145e-05
*RES
1 *557:X result[4] 9.84 
*END

*D_NET *28 0.000710033
*CONN
*P result[5] O
*I *558:X O *D sky130_fd_sc_hd__buf_2
*CAP
1 result[5] 0.000355016
2 *558:X 0.000355016
3 result[4] result[5] 0
4 *548:A result[5] 0
*RES
1 *558:X result[5] 9.945 
*END

*D_NET *29 0.00101432
*CONN
*P result[6] O
*I *559:X O *D sky130_fd_sc_hd__buf_2
*CAP
1 result[6] 0.000492139
2 *559:X 0.000492139
3 result[6] zero 0
4 result[6] *557:A 3.00381e-05
5 result[4] result[6] 0
*RES
1 *559:X result[6] 11.22 
*END

*D_NET *30 0.000700792
*CONN
*P result[7] O
*I *560:X O *D sky130_fd_sc_hd__buf_2
*CAP
1 result[7] 0.000159891
2 *560:X 0.000159891
3 result[7] *423:A 9.44791e-05
4 result[7] *434:A2 0.000108647
5 *549:A result[7] 8.53361e-05
6 *550:A result[7] 9.25475e-05
*RES
1 *560:X result[7] 5.92503 
*END

*D_NET *31 0.000941469
*CONN
*P zero O
*I *561:X O *D sky130_fd_sc_hd__buf_2
*CAP
1 zero 0.000467819
2 *561:X 0.000467819
3 zero *413:A 5.83121e-06
4 result[6] zero 0
*RES
1 *561:X zero 10.875 
*END

*D_NET *32 0.00117484
*CONN
*I *507:A I *D sky130_fd_sc_hd__and2_1
*I *525:A I *D sky130_fd_sc_hd__nor2_1
*I *524:B1 I *D sky130_fd_sc_hd__o211a_1
*I *505:Y O *D sky130_fd_sc_hd__nand2_1
*CAP
1 *507:A 1.19256e-05
2 *525:A 0.000142429
3 *524:B1 0
4 *505:Y 0.00013626
5 *32:10 0.000248424
6 *32:6 0.000254181
7 *507:A *146:8 3.09598e-05
8 *525:A *524:A2 5.53249e-06
9 *525:A *524:C1 0.000108652
10 *525:A *145:24 0
11 *525:A *146:8 2.75145e-05
12 *32:6 *146:8 7.68414e-06
13 *32:6 *146:25 0.000160635
14 *32:10 *524:A1 1.85674e-05
15 *32:10 *146:8 2.20732e-05
*RES
1 *505:Y *32:6 3.43 
2 *32:6 *32:10 1.755 
3 *32:10 *524:B1 1.6 
4 *32:10 *525:A 8.45 
5 *32:6 *507:A 2.215 
*END

*D_NET *33 0.000452327
*CONN
*I *507:B I *D sky130_fd_sc_hd__and2_1
*I *506:X O *D sky130_fd_sc_hd__o21a_1
*CAP
1 *507:B 0.000132304
2 *506:X 0.000132304
3 *507:B *506:A1 9.14049e-05
4 *507:B *509:B1 8.65961e-05
5 *507:B *524:A2 0
6 *507:B *524:C1 5.53249e-06
7 *507:B *146:31 4.18603e-06
8 *507:B *152:23 0
*RES
1 *506:X *507:B 9.375 
*END

*D_NET *34 0.00173595
*CONN
*I *512:A1 I *D sky130_fd_sc_hd__o31a_1
*I *507:X O *D sky130_fd_sc_hd__and2_1
*CAP
1 *512:A1 0.000483826
2 *507:X 0.000483826
3 *512:A1 *512:A2 4.89295e-05
4 *512:A1 *512:A3 2.67222e-05
5 *512:A1 *512:B1 4.77757e-05
6 *512:A1 *520:A2_N 0.000118513
7 *512:A1 *520:B1 0.000308719
8 *512:A1 *527:A 0.000173636
9 *512:A1 *90:39 4.40028e-05
*RES
1 *507:X *512:A1 16.155 
*END

*D_NET *35 0.00024421
*CONN
*I *509:C1 I *D sky130_fd_sc_hd__a221o_1
*I *508:Y O *D sky130_fd_sc_hd__nor2_1
*CAP
1 *509:C1 4.35141e-05
2 *508:Y 4.35141e-05
3 *509:C1 *508:B 6.5602e-05
4 *509:C1 *509:A2 0
5 *509:C1 *509:B1 8.67215e-05
6 *509:C1 *509:B2 4.85818e-06
*RES
1 *508:Y *509:C1 4.355 
*END

*D_NET *36 0.00101643
*CONN
*I *512:A2 I *D sky130_fd_sc_hd__o31a_1
*I *509:X O *D sky130_fd_sc_hd__a221o_1
*CAP
1 *512:A2 0.000173782
2 *509:X 0.000173782
3 *512:A2 *430:B 4.95541e-05
4 *512:A2 *512:A3 0.000214766
5 *512:A2 *523:B 0.00016314
6 *512:A2 *523:C 8.35863e-05
7 *512:A2 *527:A 6.29238e-05
8 *512:A2 *90:39 2.05056e-05
9 *512:A2 *181:68 0
10 *512:A2 *181:94 2.54619e-05
11 *512:A1 *512:A2 4.89295e-05
*RES
1 *509:X *512:A2 13.215 
*END

*D_NET *37 0.00114222
*CONN
*I *511:C1 I *D sky130_fd_sc_hd__a211o_1
*I *510:Y O *D sky130_fd_sc_hd__o22ai_1
*CAP
1 *511:C1 0.000247746
2 *510:Y 0.000247746
3 *511:C1 *489:A1_N 0.000123917
4 *511:C1 *510:B1 0.000118081
5 *511:C1 *521:B1 5.61302e-05
6 *511:C1 *105:34 0.000323958
7 *511:C1 *105:36 7.00889e-06
8 *511:C1 *180:66 1.7635e-05
*RES
1 *510:Y *511:C1 12.45 
*END

*D_NET *38 0.000572087
*CONN
*I *512:A3 I *D sky130_fd_sc_hd__o31a_1
*I *511:X O *D sky130_fd_sc_hd__a211o_1
*CAP
1 *512:A3 8.1164e-05
2 *511:X 8.1164e-05
3 *512:A3 *523:B 7.96104e-06
4 *512:A3 *90:39 0.00016031
5 *512:A3 *181:68 0
6 *512:A1 *512:A3 2.67222e-05
7 *512:A2 *512:A3 0.000214766
*RES
1 *511:X *512:A3 9.81 
*END

*D_NET *39 0.00621723
*CONN
*I *516:A I *D sky130_fd_sc_hd__and2_1
*I *521:B1 I *D sky130_fd_sc_hd__o2bb2a_1
*I *411:B1 I *D sky130_fd_sc_hd__o211a_1
*I *517:A I *D sky130_fd_sc_hd__nand2_1
*I *513:Y O *D sky130_fd_sc_hd__nand2_1
*CAP
1 *516:A 1.06231e-05
2 *521:B1 0.000190332
3 *411:B1 0.000365126
4 *517:A 0
5 *513:Y 0.000112671
6 *39:35 0.00148741
7 *39:29 0.00129093
8 *39:12 0.000461028
9 *411:B1 *411:A2 5.5986e-05
10 *411:B1 *414:A1_N 0
11 *411:B1 *430:B 2.56887e-05
12 *411:B1 *510:B1 0.000125559
13 *411:B1 *518:A1 1.34594e-05
14 *411:B1 *519:A3 0
15 *411:B1 *67:8 0.000160641
16 *411:B1 *108:24 0
17 *411:B1 *170:10 0.000266618
18 *516:A *520:A2_N 5.53249e-06
19 *516:A *41:21 6.71803e-06
20 *521:B1 *489:A1_N 1.37864e-05
21 *521:B1 *510:B1 0.000387678
22 *521:B1 *105:34 0
23 *521:B1 *180:66 7.96104e-06
24 *39:12 *402:A 0.000116158
25 *39:12 *41:10 8.44359e-05
26 *39:12 *43:10 7.49727e-06
27 *39:29 *528:A1 2.56752e-06
28 *39:29 *528:C1 2.05056e-05
29 *39:29 *41:21 0.000545864
30 *39:29 *43:10 2.46745e-05
31 *39:29 *43:51 0.000276707
32 *39:35 *523:B 7.12202e-05
33 *39:35 *147:26 2.37183e-05
34 *39:35 *180:66 0
35 *511:C1 *521:B1 5.61302e-05
*RES
1 *513:Y *39:12 7.88 
2 *39:12 *517:A 1.6 
3 *39:12 *39:29 10.0625 
4 *39:29 *39:35 2.31987 
5 *39:35 *411:B1 11.1825 
6 *39:35 *521:B1 8.1675 
7 *39:29 *516:A 3.8325 
*END

*D_NET *40 0.0027117
*CONN
*I *418:A1 I *D sky130_fd_sc_hd__o31ai_2
*I *412:A I *D sky130_fd_sc_hd__nor2_1
*I *514:Y O *D sky130_fd_sc_hd__nor2_1
*CAP
1 *418:A1 4.68212e-05
2 *412:A 0.000121781
3 *514:Y 0.000624193
4 *40:10 0.000792794
5 *412:A *405:B 0
6 *412:A *413:B 0.000136884
7 *412:A *414:A1_N 0
8 *412:A *418:A3 0
9 *412:A *431:D 0
10 *412:A *557:A 0
11 *412:A *170:10 0
12 *418:A1 *431:C 0.000112349
13 *418:A1 *56:16 4.00541e-06
14 *418:A1 *172:14 8.40269e-05
15 *40:10 *431:A 0.000199532
16 *40:10 *431:C 4.99619e-05
17 *40:10 *528:A1 0.000419814
18 *40:10 *559:A 2.29156e-05
19 *40:10 *171:14 2.16917e-05
20 *40:10 *172:14 7.49327e-05
*RES
1 *514:Y *40:10 10.705 
2 *40:10 *412:A 7.745 
3 *40:10 *418:A1 3.1 
*END

*D_NET *41 0.00242386
*CONN
*I *520:A2_N I *D sky130_fd_sc_hd__o2bb2a_1
*I *516:B I *D sky130_fd_sc_hd__and2_1
*I *517:B I *D sky130_fd_sc_hd__nand2_1
*I *515:X O *D sky130_fd_sc_hd__or2_1
*CAP
1 *520:A2_N 0.000368602
2 *516:B 0
3 *517:B 0
4 *515:X 0.000115517
5 *41:21 0.000553438
6 *41:10 0.000300352
7 *520:A2_N *403:A2 0
8 *520:A2_N *520:B1 9.77048e-06
9 *520:A2_N *520:B2 7.86921e-05
10 *520:A2_N *528:B1 0
11 *520:A2_N *90:50 0
12 *520:A2_N *152:23 0
13 *520:A2_N *181:68 0
14 *41:10 *181:37 0
15 *41:21 *403:A2 0
16 *41:21 *528:C1 0.000236425
17 *41:21 *43:10 0
18 *512:A1 *520:A2_N 0.000118513
19 *516:A *520:A2_N 5.53249e-06
20 *516:A *41:21 6.71803e-06
21 *39:12 *41:10 8.44359e-05
22 *39:29 *41:21 0.000545864
*RES
1 *515:X *41:10 7.49 
2 *41:10 *517:B 1.6 
3 *41:10 *41:21 8.015 
4 *41:21 *516:B 3.6 
5 *41:21 *520:A2_N 8.685 
*END

*D_NET *42 0.0011373
*CONN
*I *525:B I *D sky130_fd_sc_hd__nor2_1
*I *524:C1 I *D sky130_fd_sc_hd__o211a_1
*I *516:X O *D sky130_fd_sc_hd__and2_1
*CAP
1 *525:B 0
2 *524:C1 0.000152506
3 *516:X 0.000181458
4 *42:10 0.000333963
5 *524:C1 *520:B1 1.07797e-05
6 *524:C1 *527:B 7.23533e-05
7 *524:C1 *43:19 3.31282e-05
8 *524:C1 *146:31 0
9 *42:10 *527:A 0.000123967
10 *42:10 *527:C 8.49205e-05
11 *42:10 *527:D 3.00381e-05
12 *507:B *524:C1 5.53249e-06
13 *525:A *524:C1 0.000108652
*RES
1 *516:X *42:10 5.275 
2 *42:10 *524:C1 8.45 
3 *42:10 *525:B 1.6 
*END

*D_NET *43 0.00461802
*CONN
*I *518:B1 I *D sky130_fd_sc_hd__a21oi_1
*I *519:A3 I *D sky130_fd_sc_hd__a31o_1
*I *520:B1 I *D sky130_fd_sc_hd__o2bb2a_1
*I *526:B I *D sky130_fd_sc_hd__and3b_1
*I *403:A3 I *D sky130_fd_sc_hd__a311o_1
*I *517:Y O *D sky130_fd_sc_hd__nand2_1
*CAP
1 *518:B1 0.000194833
2 *519:A3 1.42609e-05
3 *520:B1 0.00021323
4 *526:B 0.000213559
5 *403:A3 0
6 *517:Y 0
7 *43:51 0.00059293
8 *43:19 0.000603076
9 *43:10 0.000454352
10 *43:4 0.000661901
11 *518:B1 *411:C1 4.77757e-05
12 *518:B1 *500:A 8.7152e-06
13 *518:B1 *500:B 0
14 *518:B1 *518:A1 9.72504e-05
15 *518:B1 *518:A2 3.83041e-05
16 *518:B1 *519:A2 5.5408e-05
17 *518:B1 *148:6 4.82919e-05
18 *518:B1 *148:14 8.90199e-05
19 *518:B1 *171:14 6.11331e-05
20 *519:A3 *528:A1 8.50369e-06
21 *520:B1 *520:B2 4.6368e-06
22 *520:B1 *527:B 6.28498e-05
23 *520:B1 *146:25 4.80182e-05
24 *520:B1 *146:31 3.68682e-05
25 *526:B *526:C 4.05674e-06
26 *526:B *527:C 0.000122331
27 *526:B *527:D 1.03423e-05
28 *526:B *52:6 1.02554e-05
29 *43:10 *402:A 5.4003e-05
30 *43:10 *403:A2 0
31 *43:10 *403:B1 0
32 *43:10 *403:C1 9.60582e-07
33 *43:10 *528:C1 0
34 *43:19 *403:A2 0
35 *43:19 *403:B1 0
36 *43:19 *527:B 9.50342e-06
37 *43:19 *146:31 7.58949e-05
38 *43:51 *528:A1 5.12772e-05
39 *43:51 *528:A2 1.52352e-05
40 *43:51 *528:B1 3.51088e-05
41 *43:51 *171:14 2.8585e-06
42 *411:B1 *519:A3 0
43 *512:A1 *520:B1 0.000308719
44 *520:A2_N *520:B1 9.77048e-06
45 *524:C1 *520:B1 1.07797e-05
46 *524:C1 *43:19 3.31282e-05
47 *39:12 *43:10 7.49727e-06
48 *39:29 *43:10 2.46745e-05
49 *39:29 *43:51 0.000276707
50 *41:21 *43:10 0
*RES
1 *517:Y *43:4 1.6 
2 *43:4 *43:10 6.05 
3 *43:10 *403:A3 3.6 
4 *43:10 *43:19 2.655 
5 *43:19 *526:B 6.945 
6 *43:19 *520:B1 8.64 
7 *43:4 *43:51 5.295 
8 *43:51 *519:A3 1.96 
9 *43:51 *518:B1 9.95 
*END

*D_NET *44 0.00150401
*CONN
*I *528:A1 I *D sky130_fd_sc_hd__o211ai_1
*I *518:Y O *D sky130_fd_sc_hd__a21oi_1
*CAP
1 *528:A1 0.000288112
2 *518:Y 0.000288112
3 *528:A1 *528:A2 2.68526e-05
4 *528:A1 *158:18 4.6863e-05
5 *528:A1 *158:20 2.68526e-05
6 *528:A1 *171:14 0.000273639
7 *528:A1 *181:18 1.56428e-05
8 *528:A1 *181:37 5.57702e-05
9 *519:A3 *528:A1 8.50369e-06
10 *39:29 *528:A1 2.56752e-06
11 *40:10 *528:A1 0.000419814
12 *43:51 *528:A1 5.12772e-05
*RES
1 *518:Y *528:A1 14.4 
*END

*D_NET *45 0.000164324
*CONN
*I *528:A2 I *D sky130_fd_sc_hd__o211ai_1
*I *519:X O *D sky130_fd_sc_hd__a31o_1
*CAP
1 *528:A2 1.78969e-05
2 *519:X 1.78969e-05
3 *528:A2 *528:B1 8.64421e-05
4 *528:A1 *528:A2 2.68526e-05
5 *43:51 *528:A2 1.52352e-05
*RES
1 *519:X *528:A2 3.995 
*END

*D_NET *46 0.000431928
*CONN
*I *523:A I *D sky130_fd_sc_hd__and3_1
*I *520:X O *D sky130_fd_sc_hd__o2bb2a_1
*CAP
1 *523:A 0.000165082
2 *520:X 0.000165082
3 *523:A *511:A2 1.15104e-05
4 *523:A *523:C 6.52634e-05
5 *523:A *90:39 2.49909e-05
*RES
1 *520:X *523:A 5.39 
*END

*D_NET *47 0.00100614
*CONN
*I *523:B I *D sky130_fd_sc_hd__and3_1
*I *521:X O *D sky130_fd_sc_hd__o2bb2a_1
*CAP
1 *523:B 0.000255672
2 *521:X 0.000255672
3 *523:B *430:B 0.000193515
4 *523:B *523:C 3.29947e-05
5 *523:B *180:66 2.59646e-05
6 *512:A2 *523:B 0.00016314
7 *512:A3 *523:B 7.96104e-06
8 *39:35 *523:B 7.12202e-05
*RES
1 *521:X *523:B 11.7711 
*END

*D_NET *48 0.00189802
*CONN
*I *523:C I *D sky130_fd_sc_hd__and3_1
*I *522:X O *D sky130_fd_sc_hd__o2bb2a_1
*CAP
1 *523:C 0.000625104
2 *522:X 0.000625104
3 *523:C *509:A2 3.60044e-05
4 *523:C *90:50 0
5 *523:C *181:68 1.92979e-05
6 *523:C *181:94 0.000410664
7 *512:A2 *523:C 8.35863e-05
8 *523:A *523:C 6.52634e-05
9 *523:B *523:C 3.29947e-05
*RES
1 *522:X *523:C 17.25 
*END

*D_NET *49 0.00152598
*CONN
*I *528:B1 I *D sky130_fd_sc_hd__o211ai_1
*I *523:X O *D sky130_fd_sc_hd__and3_1
*CAP
1 *528:B1 0.000390423
2 *523:X 0.000390423
3 *528:B1 *90:39 2.76356e-05
4 *528:B1 *171:14 0.00016031
5 *528:B1 *181:68 0.000435634
6 *520:A2_N *528:B1 0
7 *528:A2 *528:B1 8.64421e-05
8 *43:51 *528:B1 3.51088e-05
*RES
1 *523:X *528:B1 15.39 
*END

*D_NET *50 0.00100587
*CONN
*I *527:B I *D sky130_fd_sc_hd__or4_1
*I *524:X O *D sky130_fd_sc_hd__o211a_1
*CAP
1 *527:B 0.00025579
2 *524:X 0.00025579
3 *527:B *146:8 0.000349587
4 *520:B1 *527:B 6.28498e-05
5 *524:C1 *527:B 7.23533e-05
6 *43:19 *527:B 9.50342e-06
*RES
1 *524:X *527:B 11.28 
*END

*D_NET *51 0.000273797
*CONN
*I *527:C I *D sky130_fd_sc_hd__or4_1
*I *525:Y O *D sky130_fd_sc_hd__nor2_1
*CAP
1 *527:C 2.51814e-05
2 *525:Y 2.51814e-05
3 *527:C *527:D 1.61831e-05
4 *526:B *527:C 0.000122331
5 *42:10 *527:C 8.49205e-05
*RES
1 *525:Y *527:C 4.34 
*END

*D_NET *52 0.000528273
*CONN
*I *527:D I *D sky130_fd_sc_hd__or4_1
*I *403:B1 I *D sky130_fd_sc_hd__a311o_1
*I *526:X O *D sky130_fd_sc_hd__and3b_1
*CAP
1 *527:D 9.95685e-05
2 *403:B1 8.45714e-05
3 *526:X 3.98328e-05
4 *52:6 0.000223973
5 *403:B1 *403:C1 9.50342e-06
6 *403:B1 *145:24 0
7 *527:D *527:A 4.00541e-06
8 *526:B *527:D 1.03423e-05
9 *526:B *52:6 1.02554e-05
10 *527:C *527:D 1.61831e-05
11 *42:10 *527:D 3.00381e-05
12 *43:10 *403:B1 0
13 *43:19 *403:B1 0
*RES
1 *526:X *52:6 2.05 
2 *52:6 *403:B1 6.98 
3 *52:6 *527:D 3.1 
*END

*D_NET *53 0.00102484
*CONN
*I *528:C1 I *D sky130_fd_sc_hd__o211ai_1
*I *527:X O *D sky130_fd_sc_hd__or4_1
*CAP
1 *528:C1 0.000284696
2 *527:X 0.000284696
3 *528:C1 *403:A2 0.000114492
4 *528:C1 *527:A 8.40213e-05
5 *39:29 *528:C1 2.05056e-05
6 *41:21 *528:C1 0.000236425
7 *43:10 *528:C1 0
*RES
1 *527:X *528:C1 12.9 
*END

*D_NET *54 0.000998155
*CONN
*I *408:A2 I *D sky130_fd_sc_hd__a21o_1
*I *400:A I *D sky130_fd_sc_hd__nand2_2
*I *529:X O *D sky130_fd_sc_hd__or2_1
*CAP
1 *408:A2 0.000260577
2 *400:A 0
3 *529:X 0.000103942
4 *54:10 0.000364519
5 *408:A2 *408:B1 5.53249e-06
6 *408:A2 *431:C 0
7 *408:A2 *72:18 0
8 *408:A2 *90:18 2.16917e-05
9 *408:A2 *90:39 1.08758e-05
10 *408:A2 *182:30 0.000134021
11 *54:10 *431:C 0
12 *54:10 *182:30 9.69962e-05
*RES
1 *529:X *54:10 5.43 
2 *54:10 *400:A 3.6 
3 *54:10 *408:A2 8.235 
*END

*D_NET *55 0.00400833
*CONN
*I *406:B1 I *D sky130_fd_sc_hd__o22a_1
*I *400:B I *D sky130_fd_sc_hd__nand2_2
*I *418:B1 I *D sky130_fd_sc_hd__o31ai_2
*I *399:Y O *D sky130_fd_sc_hd__nand2_1
*CAP
1 *406:B1 0.000329896
2 *400:B 0.000109768
3 *418:B1 8.00779e-06
4 *399:Y 8.36591e-05
5 *55:19 0.000539794
6 *55:8 0.000191796
7 *400:B *405:B 2.75229e-05
8 *400:B *56:6 8.40269e-05
9 *400:B *61:12 0.00027042
10 *406:B1 *405:B 1.23331e-05
11 *406:B1 *407:B1 9.30787e-05
12 *406:B1 *409:A2 0.000110683
13 *406:B1 *409:B1 0.000482567
14 *406:B1 *410:A1 6.28765e-05
15 *406:B1 *414:B1 6.81159e-05
16 *406:B1 *424:A 4.82863e-05
17 *406:B1 *56:42 0.000175713
18 *406:B1 *93:27 6.00081e-05
19 *406:B1 *97:32 2.75145e-05
20 *406:B1 *106:79 0.000214977
21 *406:B1 *182:30 0.000103514
22 *418:B1 *431:C 2.30292e-05
23 *418:B1 *56:16 4.82863e-05
24 *55:8 *431:C 0.000433003
25 *55:8 *56:16 4.60584e-05
26 *55:8 *182:16 2.30292e-05
27 *55:8 *182:20 0.00012657
28 *55:8 *182:30 9.21168e-05
29 *55:19 *405:B 1.82563e-05
30 *55:19 *414:B1 5.53249e-06
31 *55:19 *418:A3 0
32 *55:19 *56:16 7.63282e-05
33 *55:19 *56:42 1.1561e-05
*RES
1 *399:Y *55:8 5.86 
2 *55:8 *418:B1 2.05 
3 *55:8 *55:19 4.145 
4 *55:19 *400:B 6.48 
5 *55:19 *406:B1 14.355 
*END

*D_NET *56 0.00288212
*CONN
*I *405:A I *D sky130_fd_sc_hd__and2_1
*I *409:A2 I *D sky130_fd_sc_hd__o211a_1
*I *404:A I *D sky130_fd_sc_hd__nor2_1
*I *418:A2 I *D sky130_fd_sc_hd__o31ai_2
*I *413:A I *D sky130_fd_sc_hd__xor2_1
*I *400:Y O *D sky130_fd_sc_hd__nand2_2
*CAP
1 *405:A 0
2 *409:A2 0.00012489
3 *404:A 0
4 *418:A2 0
5 *413:A 0.000216047
6 *400:Y 4.22946e-05
7 *56:42 0.000221775
8 *56:16 0.000471553
9 *56:8 0.000352391
10 *56:6 4.22946e-05
11 *409:A2 *409:C1 7.37256e-05
12 *409:A2 *414:B2 0.000120186
13 *409:A2 *527:A 2.04101e-05
14 *409:A2 *90:39 9.53428e-06
15 *413:A *413:B 0
16 *413:A *414:A2_N 0.000136877
17 *413:A *431:C 2.49909e-05
18 *413:A *559:A 0
19 *413:A *561:A 3.84409e-05
20 *413:A *172:14 2.97004e-06
21 *56:16 *431:C 9.07251e-05
22 *56:16 *182:30 0.00013994
23 *56:42 *414:B2 0.000139245
24 *56:42 *182:30 5.13397e-05
25 zero *413:A 5.83121e-06
26 *400:B *56:6 8.40269e-05
27 *406:B1 *409:A2 0.000110683
28 *406:B1 *56:42 0.000175713
29 *418:A1 *56:16 4.00541e-06
30 *418:B1 *56:16 4.82863e-05
31 *55:8 *56:16 4.60584e-05
32 *55:19 *56:16 7.63282e-05
33 *55:19 *56:42 1.1561e-05
*RES
1 *400:Y *56:6 2.395 
2 *56:6 *56:8 2 
3 *56:8 *56:16 7.205 
4 *56:16 *413:A 9.59 
5 *56:16 *418:A2 1.6 
6 *56:8 *56:42 2.955 
7 *56:42 *404:A 3.6 
8 *56:42 *409:A2 6.84 
9 *56:6 *405:A 1.6 
*END

*D_NET *57 0.00101133
*CONN
*I *402:A I *D sky130_fd_sc_hd__inv_2
*I *401:Y O *D sky130_fd_sc_hd__nand2b_1
*CAP
1 *402:A 0.000258273
2 *401:Y 0.000258273
3 *402:A *513:B 0.000274659
4 *402:A *158:29 4.99619e-05
5 *39:12 *402:A 0.000116158
6 *43:10 *402:A 5.4003e-05
*RES
1 *401:Y *402:A 11.445 
*END

*D_NET *58 0.00058686
*CONN
*I *403:C1 I *D sky130_fd_sc_hd__a311o_1
*I *402:Y O *D sky130_fd_sc_hd__inv_2
*CAP
1 *403:C1 0.000288198
2 *402:Y 0.000288198
3 *403:C1 *145:24 0
4 *403:B1 *403:C1 9.50342e-06
5 *43:10 *403:C1 9.60582e-07
*RES
1 *402:Y *403:C1 10.665 
*END

*D_NET *59 0.00492462
*CONN
*I *404:B I *D sky130_fd_sc_hd__nor2_1
*I *405:B I *D sky130_fd_sc_hd__and2_1
*I *403:X O *D sky130_fd_sc_hd__a311o_1
*CAP
1 *404:B 5.58052e-05
2 *405:B 0.000242145
3 *403:X 0.00125127
4 *59:10 0.00154922
5 *404:B *410:A3 4.47209e-05
6 *405:B *410:A1 3.09164e-05
7 *405:B *410:B1 0
8 *405:B *414:A1_N 0
9 *405:B *414:B1 0.00013687
10 *405:B *414:B2 2.36716e-05
11 *405:B *418:A3 4.43871e-06
12 *405:B *61:12 1.47256e-05
13 *59:10 *410:A3 5.05437e-05
14 *59:10 *414:B1 1.61831e-05
15 *59:10 *519:B1 4.77757e-05
16 *59:10 *108:24 0.000749625
17 *59:10 *145:24 0.000642522
18 *59:10 *146:44 6.07575e-06
19 *400:B *405:B 2.75229e-05
20 *406:B1 *405:B 1.23331e-05
21 *412:A *405:B 0
22 *55:19 *405:B 1.82563e-05
*RES
1 *403:X *59:10 18.805 
2 *59:10 *405:B 10.355 
3 *59:10 *404:B 2.755 
*END

*D_NET *60 0.000240564
*CONN
*I *410:A2 I *D sky130_fd_sc_hd__o31ai_1
*I *404:Y O *D sky130_fd_sc_hd__nor2_1
*CAP
1 *410:A2 7.70015e-05
2 *404:Y 7.70015e-05
3 *410:A2 *410:A3 2.16917e-05
4 *410:A2 *414:B1 6.48692e-05
*RES
1 *404:Y *410:A2 4.1675 
*END

*D_NET *61 0.00369376
*CONN
*I *421:A1 I *D sky130_fd_sc_hd__o21ai_1
*I *410:A3 I *D sky130_fd_sc_hd__o31ai_1
*I *422:A I *D sky130_fd_sc_hd__or3_1
*I *405:X O *D sky130_fd_sc_hd__and2_1
*CAP
1 *421:A1 0
2 *410:A3 0.000380335
3 *422:A 6.33456e-05
4 *405:X 0.000510738
5 *61:33 0.000532093
6 *61:12 0.000725841
7 *410:A3 *414:B1 0.000122325
8 *422:A *421:A2 2.15594e-05
9 *422:A *422:B 8.49205e-05
10 *422:A *428:A2_N 8.53113e-06
11 *422:A *433:A2 2.78732e-05
12 *422:A *73:10 5.53249e-06
13 *422:A *182:12 4.92935e-05
14 *61:12 *414:B2 0.000119756
15 *61:12 *422:B 0.000122331
16 *61:12 *72:24 4.82919e-05
17 *61:33 *421:A2 0.000183688
18 *61:33 *428:A1_N 1.29068e-05
19 *61:33 *428:A2_N 0.000112123
20 *61:33 *428:B1 0
21 *61:33 *431:C 3.96737e-05
22 *61:33 *433:A2 5.38986e-05
23 *61:33 *560:A 6.66009e-05
24 *400:B *61:12 0.00027042
25 *404:B *410:A3 4.47209e-05
26 *405:B *61:12 1.47256e-05
27 *410:A2 *410:A3 2.16917e-05
28 *59:10 *410:A3 5.05437e-05
*RES
1 *405:X *61:12 11.07 
2 *61:12 *422:A 5.355 
3 *61:12 *61:33 6.365 
4 *61:33 *410:A3 7.93 
5 *61:33 *421:A1 1.6 
*END

*D_NET *62 0.00146146
*CONN
*I *409:B1 I *D sky130_fd_sc_hd__o211a_1
*I *406:X O *D sky130_fd_sc_hd__o22a_1
*CAP
1 *409:B1 0.000207338
2 *406:X 0.000207338
3 *409:B1 *93:27 0.000481873
4 *409:B1 *97:32 8.23457e-05
5 *406:B1 *409:B1 0.000482567
*RES
1 *406:X *409:B1 13.71 
*END

*D_NET *63 0.00060837
*CONN
*I *408:B1 I *D sky130_fd_sc_hd__a21o_1
*I *407:X O *D sky130_fd_sc_hd__a22o_1
*CAP
1 *408:B1 0.000185514
2 *407:X 0.000185514
3 *408:B1 *90:18 0
4 *408:B1 *107:39 9.02174e-05
5 *408:B1 *182:30 0.000141592
6 *408:A2 *408:B1 5.53249e-06
*RES
1 *407:X *408:B1 10.32 
*END

*D_NET *64 0.00107886
*CONN
*I *414:B2 I *D sky130_fd_sc_hd__o2bb2a_1
*I *408:X O *D sky130_fd_sc_hd__a21o_1
*CAP
1 *414:B2 0.000213036
2 *408:X 0.000213036
3 *414:B2 *182:30 0.000249928
4 *405:B *414:B2 2.36716e-05
5 *409:A2 *414:B2 0.000120186
6 *56:42 *414:B2 0.000139245
7 *61:12 *414:B2 0.000119756
*RES
1 *408:X *414:B2 11.94 
*END

*D_NET *65 0.000358476
*CONN
*I *410:B1 I *D sky130_fd_sc_hd__o31ai_1
*I *409:X O *D sky130_fd_sc_hd__o211a_1
*CAP
1 *410:B1 9.6176e-05
2 *409:X 9.6176e-05
3 *410:B1 *410:A1 0
4 *410:B1 *414:A1_N 0.000117832
5 *410:B1 *527:A 4.82919e-05
6 *405:B *410:B1 0
*RES
1 *409:X *410:B1 9.03 
*END

*D_NET *66 0.000637823
*CONN
*I *414:B1 I *D sky130_fd_sc_hd__o2bb2a_1
*I *410:Y O *D sky130_fd_sc_hd__o31ai_1
*CAP
1 *414:B1 0.000111964
2 *410:Y 0.000111964
3 *405:B *414:B1 0.00013687
4 *406:B1 *414:B1 6.81159e-05
5 *410:A2 *414:B1 6.48692e-05
6 *410:A3 *414:B1 0.000122325
7 *55:19 *414:B1 5.53249e-06
8 *59:10 *414:B1 1.61831e-05
*RES
1 *410:Y *414:B1 10.32 
*END

*D_NET *67 0.00133897
*CONN
*I *412:B I *D sky130_fd_sc_hd__nor2_1
*I *418:A3 I *D sky130_fd_sc_hd__o31ai_2
*I *411:X O *D sky130_fd_sc_hd__o211a_1
*CAP
1 *412:B 0
2 *418:A3 0.000231874
3 *411:X 0.000243485
4 *67:8 0.000475359
5 *418:A3 *414:A1_N 2.53973e-05
6 *418:A3 *414:A2_N 6.28843e-05
7 *418:A3 *172:14 8.65961e-05
8 *67:8 *430:B 4.82919e-05
9 *405:B *418:A3 4.43871e-06
10 *411:B1 *67:8 0.000160641
11 *412:A *418:A3 0
12 *55:19 *418:A3 0
*RES
1 *411:X *67:8 5.86 
2 *67:8 *418:A3 9.77 
3 *67:8 *412:B 1.6 
*END

*D_NET *68 0.000601061
*CONN
*I *413:B I *D sky130_fd_sc_hd__xor2_1
*I *412:Y O *D sky130_fd_sc_hd__nor2_1
*CAP
1 *413:B 0.000174006
2 *412:Y 0.000174006
3 *413:B *559:A 0
4 *413:B *172:14 0.000116165
5 *412:A *413:B 0.000136884
6 *413:A *413:B 0
*RES
1 *412:Y *413:B 10.62 
*END

*D_NET *69 0.00053876
*CONN
*I *414:A2_N I *D sky130_fd_sc_hd__o2bb2a_1
*I *413:X O *D sky130_fd_sc_hd__xor2_1
*CAP
1 *414:A2_N 0.000133323
2 *413:X 0.000133323
3 *414:A2_N *561:A 7.23533e-05
4 *414:A2_N *172:14 0
5 *413:A *414:A2_N 0.000136877
6 *418:A3 *414:A2_N 6.28843e-05
*RES
1 *413:X *414:A2_N 10.11 
*END

*D_NET *70 0.00163517
*CONN
*I *433:A1 I *D sky130_fd_sc_hd__a21bo_1
*I *417:A I *D sky130_fd_sc_hd__nand2_1
*I *425:B1 I *D sky130_fd_sc_hd__a2bb2o_1
*I *415:X O *D sky130_fd_sc_hd__or2_1
*CAP
1 *433:A1 0
2 *417:A 0.00014006
3 *425:B1 5.80443e-05
4 *415:X 0.000174535
5 *70:12 0.000251108
6 *70:8 0.000227538
7 *417:A *72:14 3.98952e-05
8 *417:A *90:10 0
9 *417:A *107:22 4.03082e-05
10 *417:A *183:12 0.000254651
11 *425:B1 *423:A 0
12 *425:B1 *107:22 1.83756e-05
13 *70:8 *415:A 9.91257e-05
14 *70:8 *427:A 0
15 *70:8 *428:B2 8.40213e-05
16 *70:8 *433:A2 2.75145e-05
17 *70:12 *428:A1_N 4.43871e-06
18 *70:12 *107:22 7.63204e-05
19 *70:12 *183:10 3.09164e-05
20 *70:12 *183:12 0.000108322
*RES
1 *415:X *70:8 4.825 
2 *70:8 *70:12 3.635 
3 *70:12 *425:B1 4.41 
4 *70:12 *417:A 6.96 
5 *70:8 *433:A1 1.6 
*END

*D_NET *71 0.00125371
*CONN
*I *417:B I *D sky130_fd_sc_hd__nand2_1
*I *424:B I *D sky130_fd_sc_hd__nor2_1
*I *433:B1_N I *D sky130_fd_sc_hd__a21bo_1
*I *416:Y O *D sky130_fd_sc_hd__nand2_1
*CAP
1 *417:B 3.04708e-05
2 *424:B 0.000126654
3 *433:B1_N 7.59759e-05
4 *416:Y 3.49704e-05
5 *71:19 0.0001874
6 *71:6 0.000141221
7 *417:B *416:B 3.95724e-05
8 *417:B *432:A_N 4.00541e-06
9 *417:B *72:14 5.83121e-06
10 *424:B *416:A 0
11 *424:B *416:B 7.00889e-06
12 *424:B *427:B 2.75145e-05
13 *424:B *183:29 2.32597e-05
14 *424:B *183:35 0.000118294
15 *433:B1_N *72:14 0.000137578
16 *433:B1_N *72:18 0.00011852
17 *433:B1_N *90:10 9.37731e-05
18 *433:B1_N *90:18 2.05661e-05
19 *433:B1_N *107:22 6.10941e-05
*RES
1 *416:Y *71:6 2.05 
2 *71:6 *433:B1_N 8.51 
3 *71:6 *71:19 0.615 
4 *71:19 *424:B 4.48 
5 *71:19 *417:B 2.41 
*END

*D_NET *72 0.00258168
*CONN
*I *425:A2_N I *D sky130_fd_sc_hd__a2bb2o_1
*I *421:B1 I *D sky130_fd_sc_hd__o21ai_1
*I *422:B I *D sky130_fd_sc_hd__or3_1
*I *419:A I *D sky130_fd_sc_hd__xor2_1
*I *417:Y O *D sky130_fd_sc_hd__nand2_1
*CAP
1 *425:A2_N 0
2 *421:B1 0
3 *422:B 8.96938e-05
4 *419:A 3.55506e-05
5 *417:Y 0.000137585
6 *72:24 0.000198312
7 *72:18 0.000234169
8 *72:14 0.000298687
9 *422:B *182:12 2.97473e-05
10 *72:14 *416:B 1.17409e-05
11 *72:14 *425:B2 4.41506e-05
12 *72:14 *107:22 3.09233e-05
13 *72:18 *431:C 6.52181e-05
14 *72:18 *433:A2 0.000212726
15 *72:18 *90:18 0.000409826
16 *72:18 *107:22 1.61461e-05
17 *72:24 *431:C 0.000136182
18 *72:24 *433:A2 7.09999e-05
19 *72:24 *182:12 2.65814e-06
20 *408:A2 *72:18 0
21 *417:A *72:14 3.98952e-05
22 *417:B *72:14 5.83121e-06
23 *422:A *422:B 8.49205e-05
24 *433:B1_N *72:14 0.000137578
25 *433:B1_N *72:18 0.00011852
26 *61:12 *422:B 0.000122331
27 *61:12 *72:24 4.82919e-05
*RES
1 *417:Y *72:14 8.48 
2 *72:14 *72:18 8.225 
3 *72:18 *72:24 4.085 
4 *72:24 *419:A 2.215 
5 *72:24 *422:B 3.79 
6 *72:18 *421:B1 3.6 
7 *72:14 *425:A2_N 1.6 
*END

*D_NET *73 0.00341373
*CONN
*I *433:A2 I *D sky130_fd_sc_hd__a21bo_1
*I *419:B I *D sky130_fd_sc_hd__xor2_1
*I *418:Y O *D sky130_fd_sc_hd__o31ai_2
*CAP
1 *433:A2 0.000294558
2 *419:B 0
3 *418:Y 0.000609812
4 *73:10 0.00090437
5 *433:A2 *428:A1_N 0.000339886
6 *433:A2 *428:A2_N 5.12017e-06
7 *433:A2 *428:B2 2.59926e-05
8 *433:A2 *431:C 5.98004e-06
9 *433:A2 *107:22 2.07184e-05
10 *433:A2 *107:37 4.66108e-05
11 *73:10 *421:A2 0
12 *73:10 *431:C 0.000641708
13 *73:10 *75:10 0
14 *73:10 *182:12 9.37731e-05
15 *73:10 *182:16 2.66586e-05
16 *422:A *433:A2 2.78732e-05
17 *422:A *73:10 5.53249e-06
18 *61:33 *433:A2 5.38986e-05
19 *70:8 *433:A2 2.75145e-05
20 *72:18 *433:A2 0.000212726
21 *72:24 *433:A2 7.09999e-05
*RES
1 *418:Y *73:10 12.825 
2 *73:10 *419:B 3.6 
3 *73:10 *433:A2 11.31 
*END

*D_NET *74 0.000631587
*CONN
*I *428:A2_N I *D sky130_fd_sc_hd__o2bb2a_1
*I *419:X O *D sky130_fd_sc_hd__xor2_1
*CAP
1 *428:A2_N 0.000136974
2 *419:X 0.000136974
3 *428:A2_N *421:A2 9.30717e-05
4 *428:A2_N *423:C 0
5 *428:A2_N *428:A1_N 2.59981e-05
6 *428:A2_N *428:B2 2.78732e-05
7 *428:A2_N *560:A 8.49205e-05
8 *422:A *428:A2_N 8.53113e-06
9 *433:A2 *428:A2_N 5.12017e-06
10 *61:33 *428:A2_N 0.000112123
*RES
1 *419:X *428:A2_N 10.14 
*END

*D_NET *75 0.00139411
*CONN
*I *421:A2 I *D sky130_fd_sc_hd__o21ai_1
*I *422:C I *D sky130_fd_sc_hd__or3_1
*I *420:X O *D sky130_fd_sc_hd__and2b_1
*CAP
1 *421:A2 0.000206767
2 *422:C 0
3 *420:X 0.000196049
4 *75:10 0.000402816
5 *421:A2 *423:C 0
6 *421:A2 *560:A 2.39856e-05
7 *421:A2 *76:6 0.00026617
8 *422:A *421:A2 2.15594e-05
9 *428:A2_N *421:A2 9.30717e-05
10 *549:A *421:A2 0
11 *549:A *75:10 0
12 *61:33 *421:A2 0.000183688
13 *73:10 *421:A2 0
14 *73:10 *75:10 0
*RES
1 *420:X *75:10 6.12 
2 *75:10 *422:C 3.6 
3 *75:10 *421:A2 8.355 
*END

*D_NET *76 0.0024266
*CONN
*I *434:A2 I *D sky130_fd_sc_hd__a32o_1
*I *423:B I *D sky130_fd_sc_hd__and3_1
*I *421:Y O *D sky130_fd_sc_hd__o21ai_1
*CAP
1 *434:A2 0.000329503
2 *423:B 0
3 *421:Y 0.000338641
4 *76:6 0.000668144
5 *434:A2 *415:B 3.0283e-05
6 *434:A2 *423:A 0.000312573
7 *434:A2 *423:C 0.000101154
8 *434:A2 *428:B2 0
9 *434:A2 *560:A 4.19884e-05
10 *434:A2 *107:14 6.71882e-05
11 *434:A2 *183:10 0
12 *434:A2 *183:12 0
13 *76:6 *423:C 4.17708e-06
14 *76:6 *428:B1 4.99619e-05
15 *76:6 *560:A 2.10134e-05
16 result[7] *434:A2 0.000108647
17 *421:A2 *76:6 0.00026617
18 *540:A *434:A2 3.79595e-05
19 *550:A *434:A2 4.91924e-05
*RES
1 *421:Y *76:6 5.845 
2 *76:6 *423:B 1.6 
3 *76:6 *434:A2 13.67 
*END

*D_NET *77 0.000433411
*CONN
*I *423:C I *D sky130_fd_sc_hd__and3_1
*I *422:X O *D sky130_fd_sc_hd__or3_1
*CAP
1 *423:C 0.000158519
2 *422:X 0.000158519
3 *423:C *428:B2 0
4 *423:C *560:A 4.43871e-06
5 *423:C *182:12 6.60261e-06
6 *421:A2 *423:C 0
7 *428:A2_N *423:C 0
8 *434:A2 *423:C 0.000101154
9 *76:6 *423:C 4.17708e-06
*RES
1 *422:X *423:C 9.705 
*END

*D_NET *78 0.000128449
*CONN
*I *428:B1 I *D sky130_fd_sc_hd__o2bb2a_1
*I *423:X O *D sky130_fd_sc_hd__and3_1
*CAP
1 *428:B1 2.86893e-05
2 *423:X 2.86893e-05
3 *428:B1 *560:A 2.11084e-05
4 *61:33 *428:B1 0
5 *76:6 *428:B1 4.99619e-05
*RES
1 *423:X *428:B1 4.01 
*END

*D_NET *79 0.000683774
*CONN
*I *427:B I *D sky130_fd_sc_hd__or4_1
*I *424:Y O *D sky130_fd_sc_hd__nor2_1
*CAP
1 *427:B 0.000218618
2 *424:Y 0.000218618
3 *427:B *407:A1 0
4 *427:B *427:C 6.47594e-05
5 *427:B *427:D 5.21046e-05
6 *427:B *90:18 0
7 *427:B *97:14 4.7043e-05
8 *427:B *105:12 5.51158e-05
9 *427:B *182:30 0
10 *427:B *183:35 0
11 *424:B *427:B 2.75145e-05
*RES
1 *424:Y *427:B 11.835 
*END

*D_NET *80 0.000211745
*CONN
*I *427:C I *D sky130_fd_sc_hd__or4_1
*I *425:X O *D sky130_fd_sc_hd__a2bb2o_1
*CAP
1 *427:C 3.97888e-05
2 *425:X 3.97888e-05
3 *427:C *90:18 6.74079e-05
4 *427:B *427:C 6.47594e-05
*RES
1 *425:X *427:C 8.58 
*END

*D_NET *81 0.000331156
*CONN
*I *427:D I *D sky130_fd_sc_hd__or4_1
*I *426:X O *D sky130_fd_sc_hd__a2bb2o_1
*CAP
1 *427:D 8.91432e-05
2 *426:X 8.91432e-05
3 *427:D *407:A1 5.02217e-05
4 *427:D *107:39 5.05437e-05
5 *427:B *427:D 5.21046e-05
*RES
1 *426:X *427:D 9.12 
*END

*D_NET *82 0.0010874
*CONN
*I *428:B2 I *D sky130_fd_sc_hd__o2bb2a_1
*I *427:X O *D sky130_fd_sc_hd__or4_1
*CAP
1 *428:B2 0.000354946
2 *427:X 0.000354946
3 *428:B2 *428:A1_N 0
4 *428:B2 *560:A 6.55406e-05
5 *428:B2 *107:37 6.71882e-05
6 *428:B2 *183:10 7.06865e-05
7 *423:C *428:B2 0
8 *428:A2_N *428:B2 2.78732e-05
9 *433:A2 *428:B2 2.59926e-05
10 *434:A2 *428:B2 0
11 *550:A *428:B2 3.62062e-05
12 *70:8 *428:B2 8.40213e-05
*RES
1 *427:X *428:B2 13.14 
*END

*D_NET *83 0.00453617
*CONN
*I *430:B I *D sky130_fd_sc_hd__or2_1
*I *429:X O *D sky130_fd_sc_hd__or4_1
*CAP
1 *430:B 0.00103013
2 *429:X 0.00103013
3 *430:B *411:A2 5.22918e-05
4 *430:B *429:D 0.000380487
5 *430:B *459:B1 0.000245206
6 *430:B *460:A1 2.46089e-05
7 *430:B *475:A2 0.000132903
8 *430:B *477:B1 8.53113e-06
9 *430:B *511:A2 7.23602e-05
10 *430:B *512:B1 0
11 *430:B *105:34 0.000134743
12 *430:B *105:57 2.16389e-05
13 *430:B *106:41 0.000531877
14 *430:B *146:57 9.69559e-05
15 *430:B *147:26 0.000151774
16 *430:B *147:37 0.00017971
17 *430:B *164:68 3.23391e-05
18 *430:B *166:16 4.75576e-05
19 *430:B *170:10 0
20 *430:B *181:68 0
21 *430:B *181:94 4.58725e-05
22 *411:B1 *430:B 2.56887e-05
23 *512:A2 *430:B 4.95541e-05
24 *523:B *430:B 0.000193515
25 *67:8 *430:B 4.82919e-05
*RES
1 *429:X *430:B 29.4 
*END

*D_NET *84 0.000572277
*CONN
*I *431:D I *D sky130_fd_sc_hd__nor4_1
*I *430:X O *D sky130_fd_sc_hd__or2_1
*CAP
1 *431:D 0.000153857
2 *430:X 0.000153857
3 *431:D *557:A 5.39718e-05
4 *431:D *559:A 8.8266e-05
5 *431:D *172:14 0.000122325
6 *412:A *431:D 0
*RES
1 *430:X *431:D 10.155 
*END

*D_NET *85 0.000488506
*CONN
*I *434:A3 I *D sky130_fd_sc_hd__a32o_1
*I *432:Y O *D sky130_fd_sc_hd__nand2b_1
*CAP
1 *434:A3 8.01032e-05
2 *432:Y 8.01032e-05
3 *434:A3 *415:B 0.000162325
4 *434:A3 *160:21 3.64998e-06
5 *540:A *434:A3 0.000162325
*RES
1 *432:Y *434:A3 9.54 
*END

*D_NET *86 0.000351019
*CONN
*I *434:B1 I *D sky130_fd_sc_hd__a32o_1
*I *433:X O *D sky130_fd_sc_hd__a21bo_1
*CAP
1 *434:B1 7.91573e-05
2 *433:X 7.91573e-05
3 *434:B1 *415:A 3.00381e-05
4 *434:B1 *415:B 4.5783e-05
5 *434:B1 *92:16 8.53113e-06
6 *434:B1 *107:14 1.12459e-05
7 *434:B1 *183:12 9.71067e-05
*RES
1 *433:X *434:B1 8.9775 
*END

*D_NET *87 0.000411729
*CONN
*I *491:A1 I *D sky130_fd_sc_hd__o211a_1
*I *435:Y O *D sky130_fd_sc_hd__inv_2
*CAP
1 *491:A1 8.91125e-05
2 *435:Y 8.91125e-05
3 *491:A1 *492:A_N 8.64421e-05
4 *491:A1 *155:12 5.81774e-05
5 *491:A1 *155:18 3.60024e-06
6 *491:A1 *175:67 8.52845e-05
*RES
1 *435:Y *491:A1 9.375 
*END

*D_NET *88 0.000645939
*CONN
*I *524:A1 I *D sky130_fd_sc_hd__o211a_1
*I *436:Y O *D sky130_fd_sc_hd__inv_2
*CAP
1 *524:A1 0.000251175
2 *436:Y 0.000251175
3 *524:A1 *498:A 4.82863e-05
4 *524:A1 *146:8 7.67345e-05
5 *32:10 *524:A1 1.85674e-05
*RES
1 *436:Y *524:A1 7.115 
*END

*D_NET *89 0.00128786
*CONN
*I *438:B I *D sky130_fd_sc_hd__nor2_2
*I *487:A2 I *D sky130_fd_sc_hd__o32a_1
*I *437:Y O *D sky130_fd_sc_hd__nand2_1
*CAP
1 *438:B 0.000293817
2 *487:A2 0.000209141
3 *437:Y 0
4 *89:4 0.000502959
5 *438:B *437:B 0
6 *438:B *163:12 0
7 *438:B *177:66 0.000159305
8 *438:B *177:76 0
9 *438:B *178:94 0
10 *487:A2 *437:A 1.33184e-05
11 *487:A2 *487:B2 5.30673e-05
12 *487:A2 *107:79 5.04195e-05
13 *487:A2 *177:66 5.83121e-06
*RES
1 *437:Y *89:4 1.6 
2 *89:4 *487:A2 4.48 
3 *89:4 *438:B 9.755 
*END

*D_NET *90 0.0109762
*CONN
*I *443:B1 I *D sky130_fd_sc_hd__o22a_1
*I *425:B2 I *D sky130_fd_sc_hd__a2bb2o_1
*I *477:A1 I *D sky130_fd_sc_hd__a211o_1
*I *458:B1 I *D sky130_fd_sc_hd__o21a_1
*I *509:B2 I *D sky130_fd_sc_hd__a221o_1
*I *520:A1_N I *D sky130_fd_sc_hd__o2bb2a_1
*I *408:A1 I *D sky130_fd_sc_hd__a21o_1
*I *438:Y O *D sky130_fd_sc_hd__nor2_2
*CAP
1 *443:B1 0
2 *425:B2 0.000107778
3 *477:A1 0.000365828
4 *458:B1 8.32293e-05
5 *509:B2 0.000165315
6 *520:A1_N 0
7 *408:A1 0
8 *438:Y 0.000290545
9 *90:65 0.000619203
10 *90:50 0.000503004
11 *90:39 0.00144575
12 *90:18 0.00174869
13 *90:10 0.000863657
14 *90:8 0.000575938
15 *458:B1 *453:A 4.77719e-05
16 *458:B1 *458:A2 4.8854e-05
17 *458:B1 *459:B1 0.000269923
18 *458:B1 *101:39 5.30728e-05
19 *477:A1 *429:C 0.000334396
20 *477:A1 *462:B1 0.000440256
21 *477:A1 *471:A2 0.000331142
22 *477:A1 *479:B1 2.49909e-05
23 *477:A1 *506:B1 0
24 *477:A1 *105:71 0
25 *509:B2 *508:B 8.85379e-05
26 *509:B2 *509:A2 0
27 *509:B2 *509:B1 1.63356e-05
28 *90:8 *443:B2 0.000179981
29 *90:8 *454:B 0
30 *90:8 *97:8 0
31 *90:8 *105:12 5.65627e-05
32 *90:8 *177:37 0
33 *90:8 *177:76 0
34 *90:8 *178:94 0
35 *90:10 *442:A2 0
36 *90:10 *443:B2 9.50342e-06
37 *90:10 *92:16 0
38 *90:10 *105:12 0.000283286
39 *90:10 *183:29 0
40 *90:18 *105:12 5.4003e-05
41 *90:39 *409:C1 0.000136851
42 *90:39 *527:A 4.24593e-05
43 *90:39 *105:34 0.000181645
44 *90:39 *108:24 0.000136284
45 *90:39 *181:68 0.000139238
46 *90:50 *508:B 1.52184e-05
47 *90:50 *180:66 1.92979e-05
48 *90:50 *181:68 0.000146277
49 *90:65 *471:A2 8.53113e-06
50 *90:65 *506:B1 0
51 *90:65 *508:B 0.000134685
52 *408:A2 *90:18 2.16917e-05
53 *408:A2 *90:39 1.08758e-05
54 *408:B1 *90:18 0
55 *409:A2 *90:39 9.53428e-06
56 *417:A *90:10 0
57 *427:B *90:18 0
58 *427:C *90:18 6.74079e-05
59 *433:B1_N *90:10 9.37731e-05
60 *433:B1_N *90:18 2.05661e-05
61 *509:C1 *509:B2 4.85818e-06
62 *512:A1 *90:39 4.40028e-05
63 *512:A2 *90:39 2.05056e-05
64 *512:A3 *90:39 0.00016031
65 *520:A2_N *90:50 0
66 *523:A *90:39 2.49909e-05
67 *523:C *90:50 0
68 *528:B1 *90:39 2.76356e-05
69 *541:A *90:8 4.80579e-05
70 *72:14 *425:B2 4.41506e-05
71 *72:18 *90:18 0.000409826
*RES
1 *438:Y *90:8 9.06 
2 *90:8 *90:10 5.97 
3 *90:10 *90:18 10.52 
4 *90:18 *408:A1 1.6 
5 *90:18 *90:39 21.7038 
6 *90:39 *520:A1_N 1.6 
7 *90:39 *90:50 4.655 
8 *90:50 *509:B2 6.075 
9 *90:50 *90:65 3.165 
10 *90:65 *458:B1 6.48 
11 *90:65 *477:A1 13.125 
12 *90:10 *425:B2 5.1 
13 *90:8 *443:B1 3.6 
*END

*D_NET *91 0.00553277
*CONN
*I *446:A1 I *D sky130_fd_sc_hd__o22ai_1
*I *463:A I *D sky130_fd_sc_hd__xor2_1
*I *468:A1 I *D sky130_fd_sc_hd__o21ai_1
*I *439:Y O *D sky130_fd_sc_hd__nand2_1
*CAP
1 *446:A1 0
2 *463:A 0.000147159
3 *468:A1 0
4 *439:Y 0.000159126
5 *91:28 0.000755679
6 *91:12 0.000767647
7 *463:A *449:A 5.53249e-06
8 *463:A *468:B1 1.01661e-05
9 *463:A *470:B 0
10 *463:A *471:A1 2.30797e-05
11 *463:A *101:16 0.000120186
12 *463:A *152:12 0
13 *463:A *154:23 0
14 *91:12 *461:B2 8.40269e-05
15 *91:12 *93:27 0.000141606
16 *91:12 *97:44 0.000161529
17 *91:12 *97:46 0.000158965
18 *91:12 *108:14 0.000141606
19 *91:12 *153:24 0.000265565
20 *91:28 *449:A 7.63204e-05
21 *91:28 *489:A1_N 0.000239813
22 *91:28 *490:C 0.000164452
23 *91:28 *510:A1 0.00026911
24 *91:28 *510:A2 0.000249101
25 *91:28 *520:B2 0.000472969
26 *91:28 *96:37 0
27 *91:28 *96:48 1.46744e-05
28 *91:28 *164:8 0
29 *91:28 *164:30 8.65961e-05
30 *91:28 *164:45 0.00060564
31 *91:28 *164:68 0.000331382
32 *91:28 *179:22 8.08429e-05
*RES
1 *439:Y *91:12 11.135 
2 *91:12 *91:28 24.93 
3 *91:28 *468:A1 3.6 
4 *91:28 *463:A 6.555 
5 *91:12 *446:A1 1.6 
*END

*D_NET *92 0.0123785
*CONN
*I *462:A1 I *D sky130_fd_sc_hd__a311o_1
*I *506:B1 I *D sky130_fd_sc_hd__o21a_1
*I *478:A1 I *D sky130_fd_sc_hd__a31o_1
*I *434:A1 I *D sky130_fd_sc_hd__a32o_1
*I *423:A I *D sky130_fd_sc_hd__and3_1
*I *440:Y O *D sky130_fd_sc_hd__nor3b_2
*CAP
1 *462:A1 0.000100578
2 *506:B1 0.000384679
3 *478:A1 0.000318212
4 *434:A1 0
5 *423:A 0.000471399
6 *440:Y 1.82307e-05
7 *92:75 0.000670175
8 *92:54 0.00220731
9 *92:16 0.000903441
10 *92:8 0.00215445
11 *423:A *107:14 4.29107e-05
12 *462:A1 *462:A2 4.75991e-05
13 *462:A1 *464:A2 4.17521e-05
14 *462:A1 *464:A3 0
15 *478:A1 *464:B2 4.13769e-05
16 *478:A1 *478:A2 9.50342e-06
17 *478:A1 *478:A3 1.48969e-05
18 *478:A1 *479:A1 0.000150623
19 *478:A1 *554:A 0.000140145
20 *506:B1 *458:A1 5.13029e-05
21 *506:B1 *462:A3 9.54399e-05
22 *506:B1 *464:A1 0
23 *506:B1 *509:B1 0.000260884
24 *506:B1 *520:B2 0.000183043
25 *506:B1 *152:23 0
26 *506:B1 *180:54 0.000352156
27 *92:8 *161:10 7.47215e-05
28 *92:8 *177:10 3.25831e-05
29 *92:8 *177:12 4.31106e-05
30 *92:16 *415:B 0.000254644
31 *92:16 *442:A1 0.000139245
32 *92:16 *442:A2 5.10957e-05
33 *92:16 *442:B2 2.34345e-05
34 *92:16 *442:C1 4.9968e-05
35 *92:16 *107:14 0
36 *92:16 *160:8 8.69157e-05
37 *92:16 *161:10 0.000113517
38 *92:16 *176:14 5.11148e-06
39 *92:16 *177:12 9.04308e-05
40 *92:16 *183:12 0.000124532
41 *92:16 *183:29 2.59981e-05
42 *92:16 *184:12 3.86529e-05
43 *92:54 *444:B 0.000170564
44 *92:54 *475:A1 1.16854e-05
45 *92:54 *475:A2 0.000307407
46 *92:54 *487:B2 0.000371782
47 *92:54 *554:A 2.49909e-05
48 *92:54 *178:27 0.000181249
49 *92:54 *178:29 0.00029023
50 *92:54 *178:33 0.000458924
51 *92:75 *462:A3 5.4003e-05
52 *92:75 *462:B1 0
53 *92:75 *464:A1 0
54 *92:75 *464:B2 0
55 *92:75 *554:A 6.28498e-05
56 *92:75 *167:10 0.000183043
57 result[7] *423:A 9.44791e-05
58 *425:B1 *423:A 0
59 *434:A2 *423:A 0.000312573
60 *434:B1 *92:16 8.53113e-06
61 *477:A1 *506:B1 0
62 *533:A *92:16 0
63 *540:A *92:16 3.21064e-05
64 *551:A *92:16 0
65 *90:10 *92:16 0
66 *90:65 *506:B1 0
*RES
1 *440:Y *92:8 4.47 
2 *92:8 *92:16 13.205 
3 *92:16 *423:A 13.79 
4 *92:16 *434:A1 1.6 
5 *92:8 *92:54 26.615 
6 *92:54 *478:A1 10.985 
7 *92:54 *92:75 5.93 
8 *92:75 *506:B1 12.78 
9 *92:75 *462:A1 5.355 
*END

*D_NET *93 0.00982432
*CONN
*I *527:A I *D sky130_fd_sc_hd__or4_1
*I *410:A1 I *D sky130_fd_sc_hd__o31ai_1
*I *493:B1 I *D sky130_fd_sc_hd__a31o_1
*I *441:X O *D sky130_fd_sc_hd__or3b_2
*CAP
1 *527:A 0.000984749
2 *410:A1 6.42956e-05
3 *493:B1 0.00119568
4 *441:X 0.00014195
5 *93:27 0.00147037
6 *93:6 0.00175896
7 *493:B1 *487:B2 0
8 *493:B1 *488:B1 0
9 *493:B1 *491:C1 3.82323e-06
10 *493:B1 *495:C1 2.45351e-05
11 *493:B1 *499:A1 0.000123774
12 *493:B1 *499:B1 0.000308724
13 *493:B1 *504:C1 0
14 *493:B1 *96:12 0.000137578
15 *493:B1 *108:10 0
16 *493:B1 *108:14 0
17 *493:B1 *129:6 0.000112349
18 *493:B1 *179:16 0.000258857
19 *493:B1 *179:22 1.22676e-05
20 *493:B1 *179:57 1.34503e-05
21 *527:A *409:C1 9.80032e-06
22 *527:A *512:B1 2.64607e-05
23 *527:A *105:34 0.000728662
24 *527:A *170:10 0.00031227
25 *93:27 *414:A1_N 0
26 *93:27 *447:C 4.75576e-05
27 *93:27 *105:24 0.000305687
28 *93:27 *106:79 0.00014417
29 *93:27 *108:14 0.000301343
30 *405:B *410:A1 3.09164e-05
31 *406:B1 *410:A1 6.28765e-05
32 *406:B1 *93:27 6.00081e-05
33 *409:A2 *527:A 2.04101e-05
34 *409:B1 *93:27 0.000481873
35 *410:B1 *410:A1 0
36 *410:B1 *527:A 4.82919e-05
37 *512:A1 *527:A 0.000173636
38 *512:A2 *527:A 6.29238e-05
39 *527:D *527:A 4.00541e-06
40 *528:C1 *527:A 8.40213e-05
41 *42:10 *527:A 0.000123967
42 *90:39 *527:A 4.24593e-05
43 *91:12 *93:27 0.000141606
*RES
1 *441:X *93:6 3.085 
2 *93:6 *493:B1 23.66 
3 *93:6 *93:27 14.345 
4 *93:27 *410:A1 4.98 
5 *93:27 *527:A 21.675 
*END

*D_NET *94 0.000960725
*CONN
*I *443:B2 I *D sky130_fd_sc_hd__o22a_1
*I *442:Y O *D sky130_fd_sc_hd__a221oi_1
*CAP
1 *443:B2 0.000160761
2 *442:Y 0.000160761
3 *443:B2 *441:B 4.82919e-05
4 *443:B2 *442:A2 0
5 *443:B2 *161:10 0.000232999
6 *443:B2 *176:18 4.35348e-05
7 *443:B2 *177:37 0.000124895
8 *90:8 *443:B2 0.000179981
9 *90:10 *443:B2 9.50342e-06
*RES
1 *442:Y *443:B2 11.52 
*END

*D_NET *95 0.0017511
*CONN
*I *448:C1 I *D sky130_fd_sc_hd__a211o_1
*I *443:X O *D sky130_fd_sc_hd__o22a_1
*CAP
1 *448:C1 0.000301021
2 *443:X 0.000301021
3 *448:C1 *439:A 4.66108e-05
4 *448:C1 *448:A1 1.37328e-05
5 *448:C1 *451:B 6.31146e-05
6 *448:C1 *99:10 0.000400459
7 *448:C1 *102:14 4.99619e-05
8 *448:C1 *184:24 0.000575183
*RES
1 *443:X *448:C1 11.6 
*END

*D_NET *96 0.00844268
*CONN
*I *488:B2 I *D sky130_fd_sc_hd__o2bb2a_1
*I *459:B2 I *D sky130_fd_sc_hd__o22a_1
*I *446:A2 I *D sky130_fd_sc_hd__o22ai_1
*I *424:A I *D sky130_fd_sc_hd__nor2_1
*I *406:B2 I *D sky130_fd_sc_hd__o22a_1
*I *521:B2 I *D sky130_fd_sc_hd__o2bb2a_1
*I *510:A1 I *D sky130_fd_sc_hd__o22ai_1
*I *476:A1 I *D sky130_fd_sc_hd__o21ai_1
*I *444:X O *D sky130_fd_sc_hd__or3b_4
*CAP
1 *488:B2 2.67163e-05
2 *459:B2 5.64216e-05
3 *446:A2 0.000196115
4 *424:A 0.000173226
5 *406:B2 1.49415e-05
6 *521:B2 4.49625e-05
7 *510:A1 5.91784e-05
8 *476:A1 0.000111441
9 *444:X 0.000349002
10 *96:65 0.000525576
11 *96:48 0.000424459
12 *96:37 0.000251112
13 *96:31 0.000409435
14 *96:29 0.000302624
15 *96:18 0.000439268
16 *96:12 0.000520818
17 *424:A *97:32 0.000154428
18 *424:A *183:35 4.66108e-05
19 *446:A2 *461:B2 0.000157968
20 *459:B2 *459:A1 7.55702e-05
21 *459:B2 *164:68 2.01565e-05
22 *459:B2 *164:79 3.20202e-05
23 *459:B2 *166:16 0.000158175
24 *476:A1 *476:B1 0.000120655
25 *476:A1 *477:B1 0.0001947
26 *476:A1 *488:A1_N 9.78321e-05
27 *488:B2 *106:14 1.91597e-05
28 *510:A1 *510:B1 1.46828e-05
29 *510:A1 *520:B2 4.77719e-05
30 *510:A1 *105:34 0.00015806
31 *510:A1 *105:36 4.82919e-05
32 *521:B2 *489:A1_N 0.000116158
33 *521:B2 *510:B1 5.20968e-05
34 *96:12 *444:A 2.30292e-05
35 *96:12 *444:B 2.36616e-05
36 *96:12 *487:B2 0.000202608
37 *96:12 *178:33 2.65814e-06
38 *96:12 *179:16 7.63204e-05
39 *96:18 *488:A1_N 0.000200264
40 *96:18 *490:B 6.97118e-05
41 *96:18 *106:14 6.97118e-05
42 *96:18 *106:20 5.45302e-06
43 *96:29 *429:D 0.000307081
44 *96:29 *475:A2 8.97758e-05
45 *96:29 *490:C 0
46 *96:29 *106:20 0.000300911
47 *96:29 *106:26 0.000136884
48 *96:31 *475:A2 4.94326e-05
49 *96:31 *97:71 3.50033e-05
50 *96:31 *102:14 4.5783e-05
51 *96:31 *106:26 7.30547e-05
52 *96:37 *489:A1_N 8.53113e-06
53 *96:37 *490:C 0
54 *96:37 *97:71 9.54399e-05
55 *96:37 *102:14 2.54692e-05
56 *96:37 *106:41 7.00066e-05
57 *96:48 *489:A1_N 4.66108e-05
58 *96:48 *510:B1 8.40213e-05
59 *96:65 *489:A1_N 0.000289293
60 *96:65 *489:B2 8.6428e-05
61 *96:65 *510:B1 7.40446e-05
62 *96:65 *97:32 3.1835e-05
63 *96:65 *97:36 3.03684e-05
64 *406:B1 *424:A 4.82863e-05
65 *493:B1 *96:12 0.000137578
66 *91:28 *510:A1 0.00026911
67 *91:28 *96:37 0
68 *91:28 *96:48 1.46744e-05
*RES
1 *444:X *96:12 11.135 
2 *96:12 *96:18 3.675 
3 *96:18 *476:A1 4.465 
4 *96:18 *96:29 7.715 
5 *96:29 *96:31 1.89 
6 *96:31 *96:37 5.105 
7 *96:37 *510:A1 4.12 
8 *96:37 *96:48 1.155 
9 *96:48 *521:B2 6.98 
10 *96:48 *96:65 6.69 
11 *96:65 *406:B2 1.96 
12 *96:65 *424:A 5.275 
13 *96:31 *446:A2 6.12 
14 *96:29 *459:B2 5.445 
15 *96:12 *488:B2 2.05 
*END

*D_NET *97 0.00851594
*CONN
*I *406:A2 I *D sky130_fd_sc_hd__o22a_1
*I *489:B1 I *D sky130_fd_sc_hd__o2bb2a_1
*I *446:B1 I *D sky130_fd_sc_hd__o22ai_1
*I *475:A2 I *D sky130_fd_sc_hd__o22a_1
*I *459:A2 I *D sky130_fd_sc_hd__o22a_1
*I *508:B I *D sky130_fd_sc_hd__nor2_1
*I *426:A2_N I *D sky130_fd_sc_hd__a2bb2o_1
*I *522:B1 I *D sky130_fd_sc_hd__o2bb2a_1
*I *445:Y O *D sky130_fd_sc_hd__nand3b_4
*CAP
1 *406:A2 0
2 *489:B1 0
3 *446:B1 0
4 *475:A2 0.000235891
5 *459:A2 0
6 *508:B 0.000477946
7 *426:A2_N 1.88809e-05
8 *522:B1 0.000202511
9 *445:Y 0.000474483
10 *97:71 0.000285294
11 *97:46 0.000764897
12 *97:44 0.00040696
13 *97:36 0.000244888
14 *97:32 0.000285946
15 *97:14 0.000316669
16 *97:8 0.00078023
17 *426:A2_N *105:24 5.4155e-06
18 *475:A2 *429:D 0.000113527
19 *475:A2 *475:A1 1.52352e-05
20 *475:A2 *477:B1 9.21068e-05
21 *475:A2 *487:B2 0.000107415
22 *475:A2 *105:71 8.35068e-05
23 *475:A2 *106:41 2.14129e-05
24 *508:B *459:B1 0.000193893
25 *508:B *471:A2 8.53113e-06
26 *508:B *102:14 0.000301472
27 *508:B *180:54 3.116e-05
28 *522:B1 *522:A1_N 2.30292e-05
29 *522:B1 *105:24 3.09179e-05
30 *522:B1 *182:30 4.82863e-05
31 *522:B1 *182:32 0.000265276
32 *97:8 *447:A 0.000116158
33 *97:8 *447:B 0.000112721
34 *97:8 *105:12 0
35 *97:8 *106:79 0
36 *97:8 *183:35 6.45236e-05
37 *97:14 *105:12 0
38 *97:14 *105:24 3.49175e-05
39 *97:14 *183:35 0.00013994
40 *97:44 *406:A1 3.25831e-05
41 *97:44 *99:53 0
42 *97:44 *99:66 0
43 *97:44 *108:14 7.07879e-05
44 *97:46 *461:B2 7.98925e-05
45 *97:46 *102:14 0.000160635
46 *97:71 *106:41 0.000159964
47 *406:B1 *97:32 2.75145e-05
48 *409:B1 *97:32 8.23457e-05
49 *424:A *97:32 0.000154428
50 *427:B *97:14 4.7043e-05
51 *430:B *475:A2 0.000132903
52 *509:B2 *508:B 8.85379e-05
53 *509:C1 *508:B 6.5602e-05
54 *541:A *97:8 0
55 *90:8 *97:8 0
56 *90:50 *508:B 1.52184e-05
57 *90:65 *508:B 0.000134685
58 *91:12 *97:44 0.000161529
59 *91:12 *97:46 0.000158965
60 *92:54 *475:A2 0.000307407
61 *96:29 *475:A2 8.97758e-05
62 *96:31 *475:A2 4.94326e-05
63 *96:31 *97:71 3.50033e-05
64 *96:37 *97:71 9.54399e-05
65 *96:65 *97:32 3.1835e-05
66 *96:65 *97:36 3.03684e-05
*RES
1 *445:Y *97:8 12.12 
2 *97:8 *97:14 4.43 
3 *97:14 *522:B1 5.5 
4 *97:14 *426:A2_N 1.96 
5 *97:8 *97:32 5.9 
6 *97:32 *97:36 1.155 
7 *97:36 *97:44 7.375 
8 *97:44 *97:46 4.245 
9 *97:46 *508:B 14.885 
10 *97:46 *97:71 3.89 
11 *97:71 *459:A2 3.6 
12 *97:71 *475:A2 10.905 
13 *97:44 *446:B1 1.6 
14 *97:36 *489:B1 1.6 
15 *97:32 *406:A2 1.6 
*END

*D_NET *98 0.000398053
*CONN
*I *448:B1 I *D sky130_fd_sc_hd__a211o_1
*I *446:Y O *D sky130_fd_sc_hd__o22ai_1
*CAP
1 *448:B1 0.00010966
2 *446:Y 0.00010966
3 *448:B1 *461:B2 7.00889e-06
4 *448:B1 *99:53 7.06865e-05
5 *448:B1 *153:24 3.00381e-05
6 *448:B1 *179:22 7.09999e-05
*RES
1 *446:Y *448:B1 9.285 
*END

*D_NET *99 0.00663715
*CONN
*I *407:A2 I *D sky130_fd_sc_hd__a22o_1
*I *509:A2 I *D sky130_fd_sc_hd__a221o_1
*I *522:A2_N I *D sky130_fd_sc_hd__o2bb2a_1
*I *489:A2_N I *D sky130_fd_sc_hd__o2bb2a_1
*I *474:A2 I *D sky130_fd_sc_hd__a22o_1
*I *460:A2 I *D sky130_fd_sc_hd__a21bo_1
*I *448:A2 I *D sky130_fd_sc_hd__a211o_1
*I *447:X O *D sky130_fd_sc_hd__and3_2
*CAP
1 *407:A2 0.000196346
2 *509:A2 0.000394968
3 *522:A2_N 0
4 *489:A2_N 3.34393e-05
5 *474:A2 1.85694e-05
6 *460:A2 9.87194e-05
7 *448:A2 4.00497e-05
8 *447:X 0.00026511
9 *99:72 0.000439767
10 *99:66 0.000435671
11 *99:53 0.000369259
12 *99:35 0.000312826
13 *99:16 0.000429921
14 *99:10 0.000600738
15 *407:A2 *407:A1 4.66108e-05
16 *407:A2 *407:B1 2.8694e-05
17 *407:A2 *407:B2 8.00858e-05
18 *407:A2 *511:A1 4.22604e-05
19 *407:A2 *511:B1 5.05437e-05
20 *407:A2 *107:39 0.000156291
21 *448:A2 *448:A1 8.40269e-05
22 *448:A2 *166:16 5.83121e-06
23 *460:A2 *429:D 0.000306527
24 *460:A2 *460:A1 4.66108e-05
25 *460:A2 *460:B1_N 2.8185e-05
26 *460:A2 *166:16 4.15208e-05
27 *489:A2_N *179:22 2.05571e-05
28 *509:A2 *521:A1_N 0.000120927
29 *509:A2 *522:A1_N 1.69122e-05
30 *509:A2 *181:94 0.000299346
31 *99:10 *102:14 4.82919e-05
32 *99:16 *474:B2 3.09233e-05
33 *99:16 *490:C 7.06865e-05
34 *99:16 *102:14 0.000247528
35 *99:16 *106:26 4.24292e-06
36 *99:35 *429:D 1.16578e-05
37 *99:35 *474:A1 5.80018e-05
38 *99:35 *474:B2 0.000152127
39 *99:35 *490:C 0.000204463
40 *99:35 *106:20 1.82476e-05
41 *99:53 *153:24 0
42 *99:53 *179:22 7.10201e-05
43 *99:66 *406:A1 0
44 *99:66 *407:B2 2.69174e-05
45 *99:66 *511:A1 9.50036e-05
46 *99:66 *179:22 6.00081e-05
47 *99:72 *511:A1 2.05641e-05
48 *448:B1 *99:53 7.06865e-05
49 *448:C1 *99:10 0.000400459
50 *509:B2 *509:A2 0
51 *509:C1 *509:A2 0
52 *523:C *509:A2 3.60044e-05
53 *97:44 *99:53 0
54 *97:44 *99:66 0
*RES
1 *447:X *99:10 6.31 
2 *99:10 *99:16 5.045 
3 *99:16 *448:A2 4.395 
4 *99:16 *99:35 6.695 
5 *99:35 *460:A2 4.465 
6 *99:35 *474:A2 1.96 
7 *99:10 *99:53 4.7825 
8 *99:53 *489:A2_N 4.2825 
9 *99:53 *99:66 3.675 
10 *99:66 *99:72 2.6825 
11 *99:72 *522:A2_N 1.6 
12 *99:72 *509:A2 8.37625 
13 *99:66 *407:A2 7.9275 
*END

*D_NET *100 0.00321697
*CONN
*I *459:B1 I *D sky130_fd_sc_hd__o22a_1
*I *468:B1 I *D sky130_fd_sc_hd__o21ai_1
*I *449:Y O *D sky130_fd_sc_hd__nand2_1
*CAP
1 *459:B1 0.000773364
2 *468:B1 8.50279e-05
3 *449:Y 0
4 *100:4 0.000858392
5 *459:B1 *453:A 1.46828e-05
6 *459:B1 *458:A2 0.000139265
7 *459:B1 *102:14 1.48873e-05
8 *459:B1 *102:18 0.000122251
9 *459:B1 *105:57 1.07797e-05
10 *459:B1 *154:40 4.99619e-05
11 *459:B1 *164:68 0.000222813
12 *468:B1 *449:A 4.9968e-05
13 *468:B1 *152:12 7.23602e-05
14 *468:B1 *154:40 8.40269e-05
15 *430:B *459:B1 0.000245206
16 *458:B1 *459:B1 0.000269923
17 *463:A *468:B1 1.01661e-05
18 *508:B *459:B1 0.000193893
*RES
1 *449:Y *100:4 1.6 
2 *100:4 *468:B1 7.265 
3 *100:4 *459:B1 17.93 
*END

*D_NET *101 0.0028101
*CONN
*I *461:A1_N I *D sky130_fd_sc_hd__a2bb2o_1
*I *452:A I *D sky130_fd_sc_hd__nand2_1
*I *453:A I *D sky130_fd_sc_hd__or2_1
*I *468:A2 I *D sky130_fd_sc_hd__o21ai_1
*I *471:A1 I *D sky130_fd_sc_hd__a21o_1
*I *463:B I *D sky130_fd_sc_hd__xor2_1
*I *450:Y O *D sky130_fd_sc_hd__xnor2_2
*CAP
1 *461:A1_N 8.10402e-05
2 *452:A 8.86009e-06
3 *453:A 1.77431e-05
4 *468:A2 0
5 *471:A1 6.95902e-05
6 *463:B 0
7 *450:Y 5.76402e-05
8 *101:41 6.04421e-05
9 *101:39 0.000466496
10 *101:16 0.000132734
11 *101:10 8.0919e-05
12 *101:8 0.000427033
13 *452:A *102:18 3.57349e-05
14 *453:A *102:18 1.08758e-05
15 *461:A1_N *462:A2 7.01303e-05
16 *461:A1_N *471:A2 0.000139245
17 *471:A1 *470:B 0
18 *471:A1 *118:14 7.64119e-05
19 *101:8 *458:A2 0
20 *101:8 *154:40 2.61299e-05
21 *101:16 *118:14 6.55328e-05
22 *101:39 *449:A 4.41506e-05
23 *101:39 *458:A2 0.000429132
24 *101:39 *462:A3 0.000123955
25 *101:39 *464:A1 8.8266e-05
26 *101:39 *154:40 3.52345e-05
27 *101:41 *102:18 4.00541e-06
28 *458:B1 *453:A 4.77719e-05
29 *458:B1 *101:39 5.30728e-05
30 *459:B1 *453:A 1.46828e-05
31 *463:A *471:A1 2.30797e-05
32 *463:A *101:16 0.000120186
*RES
1 *450:Y *101:8 2.755 
2 *101:8 *101:10 0.36 
3 *101:10 *101:16 3.83 
4 *101:16 *463:B 3.6 
5 *101:16 *471:A1 5.235 
6 *101:10 *468:A2 1.6 
7 *101:8 *101:39 7.695 
8 *101:39 *101:41 0.615 
9 *101:41 *453:A 2.395 
10 *101:41 *452:A 2.05 
11 *101:39 *461:A1_N 7.685 
*END

*D_NET *102 0.00507479
*CONN
*I *452:B I *D sky130_fd_sc_hd__nand2_1
*I *453:B I *D sky130_fd_sc_hd__or2_1
*I *471:A2 I *D sky130_fd_sc_hd__a21o_1
*I *451:Y O *D sky130_fd_sc_hd__nand2b_1
*CAP
1 *452:B 0
2 *453:B 0
3 *471:A2 0.000702324
4 *451:Y 0.000316377
5 *102:18 0.000761701
6 *102:14 0.000375753
7 *471:A2 *429:B 2.99981e-06
8 *471:A2 *429:D 1.16854e-05
9 *471:A2 *461:B2 0
10 *471:A2 *462:C1 9.5433e-05
11 *471:A2 *471:B1 4.00541e-06
12 *471:A2 *553:A 0.000504267
13 *471:A2 *105:57 0
14 *471:A2 *105:71 0
15 *471:A2 *166:16 8.35068e-05
16 *102:14 *448:A1 0.000146408
17 *102:14 *461:B2 0.000412043
18 *102:14 *490:C 4.71168e-05
19 *102:14 *106:26 8.53113e-06
20 *102:14 *164:79 4.82919e-05
21 *448:C1 *102:14 4.99619e-05
22 *452:A *102:18 3.57349e-05
23 *453:A *102:18 1.08758e-05
24 *459:B1 *102:14 1.48873e-05
25 *459:B1 *102:18 0.000122251
26 *461:A1_N *471:A2 0.000139245
27 *477:A1 *471:A2 0.000331142
28 *508:B *471:A2 8.53113e-06
29 *508:B *102:14 0.000301472
30 *90:65 *471:A2 8.53113e-06
31 *96:31 *102:14 4.5783e-05
32 *96:37 *102:14 2.54692e-05
33 *97:46 *102:14 0.000160635
34 *99:10 *102:14 4.82919e-05
35 *99:16 *102:14 0.000247528
36 *101:41 *102:18 4.00541e-06
*RES
1 *451:Y *102:14 15.29 
2 *102:14 *102:18 1.5 
3 *102:18 *471:A2 18.05 
4 *102:18 *453:B 1.6 
5 *102:14 *452:B 1.6 
*END

*D_NET *103 0.000941888
*CONN
*I *462:A2 I *D sky130_fd_sc_hd__a311o_1
*I *452:Y O *D sky130_fd_sc_hd__nand2_1
*CAP
1 *462:A2 0.000325037
2 *452:Y 0.000325037
3 *462:A2 *461:A2_N 3.64998e-06
4 *462:A2 *461:B2 2.30184e-05
5 *462:A2 *462:A3 7.33411e-05
6 *462:A2 *462:B1 3.60024e-06
7 *462:A2 *462:C1 4.15543e-05
8 *462:A2 *464:A2 2.89202e-05
9 *461:A1_N *462:A2 7.01303e-05
10 *462:A1 *462:A2 4.75991e-05
*RES
1 *452:Y *462:A2 15.805 
*END

*D_NET *104 0.000622323
*CONN
*I *462:A3 I *D sky130_fd_sc_hd__a311o_1
*I *453:X O *D sky130_fd_sc_hd__or2_1
*CAP
1 *462:A3 0.000137792
2 *453:X 0.000137792
3 *462:A2 *462:A3 7.33411e-05
4 *506:B1 *462:A3 9.54399e-05
5 *92:75 *462:A3 5.4003e-05
6 *101:39 *462:A3 0.000123955
*RES
1 *453:X *462:A3 9.975 
*END

*D_NET *105 0.0132459
*CONN
*I *425:A1_N I *D sky130_fd_sc_hd__a2bb2o_1
*I *409:A1 I *D sky130_fd_sc_hd__o211a_1
*I *510:B2 I *D sky130_fd_sc_hd__o22ai_1
*I *461:A2_N I *D sky130_fd_sc_hd__a2bb2o_1
*I *487:B2 I *D sky130_fd_sc_hd__o32a_1
*I *475:B1 I *D sky130_fd_sc_hd__o22a_1
*I *520:B2 I *D sky130_fd_sc_hd__o2bb2a_1
*I *454:X O *D sky130_fd_sc_hd__or3b_2
*CAP
1 *425:A1_N 3.2156e-05
2 *409:A1 0
3 *510:B2 0
4 *461:A2_N 0.000121456
5 *487:B2 0.000536558
6 *475:B1 0
7 *520:B2 0.000350886
8 *454:X 0.000501049
9 *105:71 0.000866563
10 *105:57 0.000664219
11 *105:36 0.000577742
12 *105:34 0.000436866
13 *105:24 0.00100535
14 *105:12 0.00111579
15 *461:A2_N *461:B1 4.77719e-05
16 *487:B2 *444:A 0.00016886
17 *487:B2 *444:B 1.56406e-05
18 *487:B2 *475:A1 4.82919e-05
19 *487:B2 *487:A1 0.000178255
20 *487:B2 *488:B1 6.73751e-05
21 *487:B2 *107:79 9.2741e-05
22 *487:B2 *108:10 9.14049e-05
23 *520:B2 *510:A2 0.000306561
24 *520:B2 *152:23 0
25 *105:12 *176:18 0.00023468
26 *105:24 *108:14 0.000289011
27 *105:24 *182:30 2.05056e-05
28 *105:24 *182:32 0.000104162
29 *105:34 *409:C1 3.66286e-05
30 *105:34 *489:A1_N 2.15594e-05
31 *105:34 *510:B1 8.23457e-05
32 *105:34 *511:A2 7.23602e-05
33 *105:34 *106:41 0.000217008
34 *105:34 *108:24 0.000237249
35 *105:57 *461:B2 8.6511e-05
36 *105:57 *164:68 0.000284969
37 *105:71 *460:A1 0.000163008
38 *105:71 *460:B1_N 7.14241e-05
39 *105:71 *462:B1 0
40 *105:71 *475:A1 3.83194e-05
41 *105:71 *166:16 1.08056e-05
42 *426:A2_N *105:24 5.4155e-06
43 *427:B *105:12 5.51158e-05
44 *430:B *105:34 0.000134743
45 *430:B *105:57 2.16389e-05
46 *459:B1 *105:57 1.07797e-05
47 *462:A2 *461:A2_N 3.64998e-06
48 *471:A2 *105:57 0
49 *471:A2 *105:71 0
50 *475:A2 *487:B2 0.000107415
51 *475:A2 *105:71 8.35068e-05
52 *477:A1 *105:71 0
53 *487:A2 *487:B2 5.30673e-05
54 *493:B1 *487:B2 0
55 *506:B1 *520:B2 0.000183043
56 *510:A1 *520:B2 4.77719e-05
57 *510:A1 *105:34 0.00015806
58 *510:A1 *105:36 4.82919e-05
59 *511:C1 *105:34 0.000323958
60 *511:C1 *105:36 7.00889e-06
61 *520:A2_N *520:B2 7.86921e-05
62 *520:B1 *520:B2 4.6368e-06
63 *521:B1 *105:34 0
64 *522:B1 *105:24 3.09179e-05
65 *527:A *105:34 0.000728662
66 *90:8 *105:12 5.65627e-05
67 *90:10 *105:12 0.000283286
68 *90:18 *105:12 5.4003e-05
69 *90:39 *105:34 0.000181645
70 *91:28 *520:B2 0.000472969
71 *92:54 *487:B2 0.000371782
72 *93:27 *105:24 0.000305687
73 *96:12 *487:B2 0.000202608
74 *97:8 *105:12 0
75 *97:14 *105:12 0
76 *97:14 *105:24 3.49175e-05
*RES
1 *454:X *105:12 15.53 
2 *105:12 *105:24 14.02 
3 *105:24 *105:34 18.37 
4 *105:34 *105:36 0.45 
5 *105:36 *520:B2 15.02 
6 *105:36 *105:57 6.44 
7 *105:57 *105:71 8.09 
8 *105:71 *475:B1 1.6 
9 *105:71 *487:B2 19.61 
10 *105:57 *461:A2_N 5.43 
11 *105:34 *510:B2 1.6 
12 *105:24 *409:A1 1.6 
13 *105:12 *425:A1_N 2.05 
*END

*D_NET *106 0.00812731
*CONN
*I *426:B1 I *D sky130_fd_sc_hd__a2bb2o_1
*I *407:B1 I *D sky130_fd_sc_hd__a22o_1
*I *488:A2_N I *D sky130_fd_sc_hd__o2bb2a_1
*I *474:B1 I *D sky130_fd_sc_hd__a22o_1
*I *521:A2_N I *D sky130_fd_sc_hd__o2bb2a_1
*I *511:A2 I *D sky130_fd_sc_hd__a211o_1
*I *461:B1 I *D sky130_fd_sc_hd__a2bb2o_1
*I *455:X O *D sky130_fd_sc_hd__and3b_1
*CAP
1 *426:B1 0
2 *407:B1 0.000206064
3 *488:A2_N 0
4 *474:B1 0
5 *521:A2_N 0
6 *511:A2 0.000169256
7 *461:B1 0.000140574
8 *455:X 5.04407e-05
9 *106:79 0.000730846
10 *106:41 0.000351771
11 *106:26 0.000477812
12 *106:20 0.000445735
13 *106:14 0.000651661
14 *106:6 0.000935872
15 *407:B1 *407:A1 0.000155497
16 *407:B1 *182:30 4.94404e-05
17 *461:B1 *459:A1 0
18 *461:B1 *164:68 0.000118081
19 *511:A2 *511:A1 1.87424e-05
20 *106:6 *176:83 8.65961e-05
21 *106:14 *488:A1_N 9.53428e-06
22 *106:14 *488:B1 7.60965e-05
23 *106:14 *108:10 8.23457e-05
24 *106:14 *176:83 1.62913e-05
25 *106:14 *176:87 8.59955e-05
26 *106:20 *474:B2 5.53249e-06
27 *106:20 *488:A1_N 0.000168452
28 *106:20 *490:C 0
29 *106:26 *474:B2 0.000100544
30 *106:26 *164:68 1.08758e-05
31 *106:26 *164:79 0.000145515
32 *106:41 *489:A1_N 4.24292e-06
33 *106:79 *444:A 3.39064e-05
34 *106:79 *447:B 0.000161921
35 *106:79 *447:C 0.000159957
36 *106:79 *108:10 0
37 *106:79 *177:76 0
38 *106:79 *178:46 0.000139231
39 *106:79 *182:30 1.70935e-05
40 *106:79 *183:35 0
41 *406:B1 *407:B1 9.30787e-05
42 *406:B1 *106:79 0.000214977
43 *407:A2 *407:B1 2.8694e-05
44 *430:B *511:A2 7.23602e-05
45 *430:B *106:41 0.000531877
46 *461:A2_N *461:B1 4.77719e-05
47 *475:A2 *106:41 2.14129e-05
48 *488:B2 *106:14 1.91597e-05
49 *523:A *511:A2 1.15104e-05
50 *93:27 *106:79 0.00014417
51 *96:18 *106:14 6.97118e-05
52 *96:18 *106:20 5.45302e-06
53 *96:29 *106:20 0.000300911
54 *96:29 *106:26 0.000136884
55 *96:31 *106:26 7.30547e-05
56 *96:37 *106:41 7.00066e-05
57 *97:8 *106:79 0
58 *97:71 *106:41 0.000159964
59 *99:16 *106:26 4.24292e-06
60 *99:35 *106:20 1.82476e-05
61 *102:14 *106:26 8.53113e-06
62 *105:34 *511:A2 7.23602e-05
63 *105:34 *106:41 0.000217008
*RES
1 *455:X *106:6 2.395 
2 *106:6 *106:14 6.105 
3 *106:14 *106:20 7.505 
4 *106:20 *106:26 5.885 
5 *106:26 *461:B1 3.895 
6 *106:26 *106:41 8.48 
7 *106:41 *511:A2 6.675 
8 *106:41 *521:A2_N 3.6 
9 *106:20 *474:B1 3.6 
10 *106:14 *488:A2_N 1.6 
11 *106:6 *106:79 14.09 
12 *106:79 *407:B1 6.915 
13 *106:79 *426:B1 3.6 
*END

*D_NET *107 0.0138336
*CONN
*I *495:A1 I *D sky130_fd_sc_hd__a211o_1
*I *477:C1 I *D sky130_fd_sc_hd__a211o_1
*I *462:B1 I *D sky130_fd_sc_hd__a311o_1
*I *434:B2 I *D sky130_fd_sc_hd__a32o_1
*I *427:A I *D sky130_fd_sc_hd__or4_1
*I *414:A1_N I *D sky130_fd_sc_hd__o2bb2a_1
*I *511:B1 I *D sky130_fd_sc_hd__a211o_1
*I *428:A1_N I *D sky130_fd_sc_hd__o2bb2a_1
*I *456:Y O *D sky130_fd_sc_hd__nor3_4
*CAP
1 *495:A1 6.80656e-05
2 *477:C1 0
3 *462:B1 0.00052894
4 *434:B2 0
5 *427:A 2.08101e-05
6 *414:A1_N 0.000395065
7 *511:B1 0.000249686
8 *428:A1_N 0.000141838
9 *456:Y 7.57003e-05
10 *107:89 0.000910744
11 *107:79 0.00161176
12 *107:39 0.00100989
13 *107:37 0.000488287
14 *107:22 0.000367987
15 *107:14 0.0010096
16 *107:8 0.00212338
17 *414:A1_N *510:B1 0
18 *414:A1_N *108:14 0
19 *414:A1_N *108:24 0.000125533
20 *428:A1_N *560:A 1.20411e-05
21 *428:A1_N *183:10 4.11112e-05
22 *462:B1 *460:A1 0
23 *462:B1 *108:59 3.05263e-05
24 *495:A1 *429:D 4.91927e-05
25 *495:A1 *495:A2 9.50342e-06
26 *495:A1 *495:B1 6.20952e-05
27 *495:A1 *179:16 0
28 *511:B1 *511:A1 0.000404788
29 *107:14 *442:B2 1.64907e-05
30 *107:14 *552:A 0
31 *107:14 *178:8 4.91189e-05
32 *107:39 *407:A1 0.000171296
33 *107:39 *407:B2 4.99619e-05
34 *107:79 *437:A 4.66311e-05
35 *107:79 *490:A 0.000311294
36 *107:79 *495:B1 8.8266e-05
37 *107:79 *530:A 4.82863e-05
38 *107:79 *177:6 1.74678e-05
39 *107:79 *177:66 0.000374082
40 *107:79 *178:8 0.000103805
41 *107:89 *429:C 0
42 *107:89 *475:B2 4.17246e-05
43 *107:89 *476:A2 0.000109198
44 *107:89 *493:A1 1.24708e-05
45 *107:89 *494:B 4.77757e-05
46 *107:89 *494:C 8.52883e-05
47 *107:89 *495:C1 0.000195861
48 *107:89 *117:66 1.53053e-05
49 *107:89 *134:18 8.40394e-05
50 carry *107:14 6.63219e-06
51 *405:B *414:A1_N 0
52 *407:A2 *511:B1 5.05437e-05
53 *407:A2 *107:39 0.000156291
54 *408:B1 *107:39 9.02174e-05
55 *410:B1 *414:A1_N 0.000117832
56 *411:B1 *414:A1_N 0
57 *412:A *414:A1_N 0
58 *417:A *107:22 4.03082e-05
59 *418:A3 *414:A1_N 2.53973e-05
60 *423:A *107:14 4.29107e-05
61 *425:B1 *107:22 1.83756e-05
62 *427:D *107:39 5.05437e-05
63 *428:A2_N *428:A1_N 2.59981e-05
64 *428:B2 *428:A1_N 0
65 *428:B2 *107:37 6.71882e-05
66 *433:A2 *428:A1_N 0.000339886
67 *433:A2 *107:22 2.07184e-05
68 *433:A2 *107:37 4.66108e-05
69 *433:B1_N *107:22 6.10941e-05
70 *434:A2 *107:14 6.71882e-05
71 *434:B1 *107:14 1.12459e-05
72 *462:A2 *462:B1 3.60024e-06
73 *477:A1 *462:B1 0.000440256
74 *487:A2 *107:79 5.04195e-05
75 *487:B2 *107:79 9.2741e-05
76 *540:A *107:14 0
77 *551:A *107:14 0.000261976
78 *61:33 *428:A1_N 1.29068e-05
79 *70:8 *427:A 0
80 *70:12 *428:A1_N 4.43871e-06
81 *70:12 *107:22 7.63204e-05
82 *72:14 *107:22 3.09233e-05
83 *72:18 *107:22 1.61461e-05
84 *92:16 *107:14 0
85 *92:75 *462:B1 0
86 *93:27 *414:A1_N 0
87 *105:71 *462:B1 0
*RES
1 *456:Y *107:8 4.395 
2 *107:8 *107:14 17.48 
3 *107:14 *107:22 5.3 
4 *107:22 *428:A1_N 7.64625 
5 *107:22 *107:37 3.83 
6 *107:37 *107:39 7.35 
7 *107:39 *511:B1 6.895 
8 *107:39 *414:A1_N 12.0538 
9 *107:37 *427:A 1.96 
10 *107:14 *434:B2 1.6 
11 *107:8 *107:79 22.175 
12 *107:79 *107:89 9.8 
13 *107:89 *462:B1 11.3961 
14 *107:89 *477:C1 3.6 
15 *107:79 *495:A1 7.235 
*END

*D_NET *108 0.0107258
*CONN
*I *479:A1 I *D sky130_fd_sc_hd__o22a_1
*I *464:B2 I *D sky130_fd_sc_hd__o32a_1
*I *409:C1 I *D sky130_fd_sc_hd__o211a_1
*I *502:B1 I *D sky130_fd_sc_hd__a21o_1
*I *519:B1 I *D sky130_fd_sc_hd__a31o_1
*I *457:X O *D sky130_fd_sc_hd__or3_2
*CAP
1 *479:A1 0.00018783
2 *464:B2 0.000227041
3 *409:C1 7.39731e-05
4 *502:B1 3.07952e-05
5 *519:B1 8.13887e-05
6 *457:X 0.000193124
7 *108:59 0.00203195
8 *108:24 0.000500911
9 *108:14 0.00105843
10 *108:10 0.00240593
11 *464:B2 *464:A1 4.18603e-06
12 *464:B2 *152:12 0
13 *479:A1 *478:A3 3.86607e-05
14 *479:A1 *479:B1 0.000114433
15 *479:A1 *479:B2 7.21313e-05
16 *479:A1 *152:12 0
17 *502:B1 *502:A2 1.20052e-05
18 *519:B1 *502:A1 2.49416e-05
19 *519:B1 *145:24 0.000131168
20 *519:B1 *146:44 1.77665e-05
21 *519:B1 *148:14 1.49193e-05
22 *108:14 *406:A1 0.00020613
23 *108:14 *407:B2 5.72916e-05
24 *108:14 *447:C 0
25 *108:14 *511:A1 0
26 *108:14 *153:18 4.9968e-05
27 *108:14 *153:24 0.000181376
28 *108:14 *178:46 0
29 *108:14 *179:22 0
30 *108:24 *502:A2 8.65905e-05
31 *108:24 *510:B1 8.09051e-05
32 *108:24 *146:44 4.28041e-05
33 *108:24 *147:37 4.66742e-05
34 *409:A2 *409:C1 7.37256e-05
35 *411:B1 *108:24 0
36 *414:A1_N *108:14 0
37 *414:A1_N *108:24 0.000125533
38 *462:B1 *108:59 3.05263e-05
39 *478:A1 *464:B2 4.13769e-05
40 *478:A1 *479:A1 0.000150623
41 *487:B2 *108:10 9.14049e-05
42 *493:B1 *108:10 0
43 *493:B1 *108:14 0
44 *527:A *409:C1 9.80032e-06
45 *59:10 *519:B1 4.77757e-05
46 *59:10 *108:24 0.000749625
47 *90:39 *409:C1 0.000136851
48 *90:39 *108:24 0.000136284
49 *91:12 *108:14 0.000141606
50 *92:75 *464:B2 0
51 *93:27 *108:14 0.000301343
52 *97:44 *108:14 7.07879e-05
53 *105:24 *108:14 0.000289011
54 *105:34 *409:C1 3.66286e-05
55 *105:34 *108:24 0.000237249
56 *106:14 *108:10 8.23457e-05
57 *106:79 *108:10 0
*RES
1 *457:X *108:10 6.1575 
2 *108:10 *108:14 16.0025 
3 *108:14 *108:24 15.835 
4 *108:24 *519:B1 7.685 
5 *108:24 *502:B1 2.215 
6 *108:14 *409:C1 3.79 
7 *108:10 *108:59 3.66 
8 *108:59 *464:B2 7.4025 
9 *108:59 *479:A1 7.9125 
*END

*D_NET *109 0.000407434
*CONN
*I *464:A1 I *D sky130_fd_sc_hd__o32a_1
*I *458:X O *D sky130_fd_sc_hd__o21a_1
*CAP
1 *464:A1 0.000157491
2 *458:X 0.000157491
3 *464:A1 *152:12 0
4 *464:B2 *464:A1 4.18603e-06
5 *506:B1 *464:A1 0
6 *92:75 *464:A1 0
7 *101:39 *464:A1 8.8266e-05
*RES
1 *458:X *464:A1 9.63 
*END

*D_NET *110 0.000453596
*CONN
*I *460:B1_N I *D sky130_fd_sc_hd__a21bo_1
*I *459:X O *D sky130_fd_sc_hd__o22a_1
*CAP
1 *460:B1_N 0.000117511
2 *459:X 0.000117511
3 *460:B1_N *166:16 0.000118964
4 *460:A2 *460:B1_N 2.8185e-05
5 *105:71 *460:B1_N 7.14241e-05
*RES
1 *459:X *460:B1_N 9.21 
*END

*D_NET *111 0.00066322
*CONN
*I *462:C1 I *D sky130_fd_sc_hd__a311o_1
*I *460:X O *D sky130_fd_sc_hd__a21bo_1
*CAP
1 *462:C1 0.000194102
2 *460:X 0.000194102
3 *462:C1 *464:A2 5.31874e-05
4 *462:C1 *166:16 8.4841e-05
5 *462:A2 *462:C1 4.15543e-05
6 *471:A2 *462:C1 9.5433e-05
*RES
1 *460:X *462:C1 10.62 
*END

*D_NET *112 0.000862978
*CONN
*I *464:A2 I *D sky130_fd_sc_hd__o32a_1
*I *461:X O *D sky130_fd_sc_hd__a2bb2o_1
*CAP
1 *464:A2 0.000260182
2 *461:X 0.000260182
3 *464:A2 *464:A3 9.52646e-05
4 *464:A2 *464:B1 0
5 *464:A2 *167:10 0.00012349
6 *462:A1 *464:A2 4.17521e-05
7 *462:A2 *464:A2 2.89202e-05
8 *462:C1 *464:A2 5.31874e-05
*RES
1 *461:X *464:A2 8.165 
*END

*D_NET *113 0.000326495
*CONN
*I *464:A3 I *D sky130_fd_sc_hd__o32a_1
*I *462:X O *D sky130_fd_sc_hd__a311o_1
*CAP
1 *464:A3 0.000115615
2 *462:X 0.000115615
3 *462:A1 *464:A3 0
4 *464:A2 *464:A3 9.52646e-05
*RES
1 *462:X *464:A3 5.39 
*END

*D_NET *114 0.000204826
*CONN
*I *464:B1 I *D sky130_fd_sc_hd__o32a_1
*I *463:X O *D sky130_fd_sc_hd__xor2_1
*CAP
1 *464:B1 0.000102413
2 *463:X 0.000102413
3 *464:A2 *464:B1 0
*RES
1 *463:X *464:B1 4.7 
*END

*D_NET *115 0.0020427
*CONN
*I *467:A I *D sky130_fd_sc_hd__nand2_2
*I *485:A1 I *D sky130_fd_sc_hd__a21bo_1
*I *477:A2 I *D sky130_fd_sc_hd__a211o_1
*I *465:X O *D sky130_fd_sc_hd__or2_1
*CAP
1 *467:A 6.89164e-05
2 *485:A1 0
3 *477:A2 0.000221981
4 *465:X 0.000156741
5 *115:12 0.000447639
6 *467:A *485:A2 3.68999e-05
7 *467:A *116:23 8.51746e-05
8 *467:A *134:18 8.46717e-05
9 *477:A2 *477:B1 3.50152e-06
10 *477:A2 *478:A2 0
11 *477:A2 *478:B1 0.000123955
12 *477:A2 *479:B1 0.000197826
13 *477:A2 *116:10 2.59981e-05
14 *115:12 *478:A2 4.9968e-05
15 *115:12 *485:A2 0.000356223
16 *115:12 *485:B1_N 2.30292e-05
17 *115:12 *491:B1 4.08514e-05
18 *115:12 *116:10 0
19 *115:12 *117:10 7.8192e-05
20 *115:12 *152:12 4.11281e-05
*RES
1 *465:X *115:12 10.19 
2 *115:12 *477:A2 9.935 
3 *115:12 *485:A1 1.6 
4 *115:12 *467:A 3.43 
*END

*D_NET *116 0.00210927
*CONN
*I *476:A2 I *D sky130_fd_sc_hd__o21ai_1
*I *467:B I *D sky130_fd_sc_hd__nand2_2
*I *485:B1_N I *D sky130_fd_sc_hd__a21bo_1
*I *466:Y O *D sky130_fd_sc_hd__nand2_1
*CAP
1 *476:A2 0.000177157
2 *467:B 2.23505e-05
3 *485:B1_N 3.69852e-05
4 *466:Y 8.91795e-05
5 *116:23 0.000294554
6 *116:10 0.000221212
7 *476:A2 *429:C 2.97004e-06
8 *476:A2 *476:B1 2.11782e-05
9 *476:A2 *479:B1 8.46717e-05
10 *476:A2 *494:A 1.91597e-05
11 *476:A2 *494:B 7.03981e-05
12 *476:A2 *494:C 4.66108e-05
13 *476:A2 *504:A1 0
14 *476:A2 *117:66 1.56628e-05
15 *485:B1_N *472:A 0
16 *485:B1_N *485:A2 4.82863e-05
17 *485:B1_N *117:10 8.8266e-05
18 *116:10 *478:A2 0
19 *116:10 *485:A2 4.9968e-05
20 *116:10 *491:B1 7.23602e-05
21 *116:10 *504:A1 0
22 *116:23 *485:A2 0.00012182
23 *116:23 *494:A 1.61831e-05
24 *116:23 *117:6 0.00012396
25 *116:23 *117:10 0.000222579
26 *116:23 *117:66 1.16578e-05
27 *116:23 *134:18 8.70433e-06
28 *467:A *116:23 8.51746e-05
29 *477:A2 *116:10 2.59981e-05
30 *107:89 *476:A2 0.000109198
31 *115:12 *485:B1_N 2.30292e-05
32 *115:12 *116:10 0
*RES
1 *466:Y *116:10 7.49 
2 *116:10 *485:B1_N 2.755 
3 *116:10 *116:23 3.57 
4 *116:23 *467:B 1.96 
5 *116:23 *476:A2 8.915 
*END

*D_NET *117 0.00523441
*CONN
*I *493:A1 I *D sky130_fd_sc_hd__a31o_1
*I *475:B2 I *D sky130_fd_sc_hd__o22a_1
*I *504:A1 I *D sky130_fd_sc_hd__a311o_1
*I *472:A I *D sky130_fd_sc_hd__nand2_1
*I *473:A I *D sky130_fd_sc_hd__or2_1
*I *469:A I *D sky130_fd_sc_hd__xnor2_1
*I *467:Y O *D sky130_fd_sc_hd__nand2_2
*CAP
1 *493:A1 0.000170474
2 *475:B2 0.00016577
3 *504:A1 0.000143422
4 *472:A 2.95978e-05
5 *473:A 4.01562e-05
6 *469:A 0.000178006
7 *467:Y 0
8 *117:66 0.000493903
9 *117:16 0.00044612
10 *117:10 0.000662307
11 *117:6 0.000624555
12 *117:4 0.000234041
13 *469:A *429:C 8.44077e-05
14 *469:A *479:A2 4.58257e-05
15 *469:A *479:B1 2.30292e-05
16 *469:A *479:B2 3.55028e-05
17 *469:A *168:6 0.000200615
18 *472:A *485:A2 8.65961e-05
19 *473:A *118:14 8.55669e-05
20 *473:A *121:19 0
21 *475:B2 *460:A1 2.97746e-05
22 *475:B2 *175:10 8.64916e-05
23 *475:B2 *175:12 4.45827e-05
24 *493:A1 *494:B 0
25 *493:A1 *504:A3 5.42341e-06
26 *493:A1 *504:C1 2.4749e-05
27 *493:A1 *175:10 0.000112396
28 *504:A1 *491:B1 0
29 *504:A1 *494:A 5.88634e-05
30 *504:A1 *494:B 1.80525e-05
31 *117:10 *485:A2 7.67415e-06
32 *117:16 *469:B 2.16917e-05
33 *117:16 *472:B 4.66108e-05
34 *117:16 *485:A2 1.46744e-05
35 *117:16 *118:14 0.000235534
36 *117:16 *121:19 0
37 *117:66 *494:B 0.000120407
38 *117:66 *495:C1 4.77719e-05
39 *476:A2 *504:A1 0
40 *476:A2 *117:66 1.56628e-05
41 *485:B1_N *472:A 0
42 *485:B1_N *117:10 8.8266e-05
43 *107:89 *475:B2 4.17246e-05
44 *107:89 *493:A1 1.24708e-05
45 *107:89 *117:66 1.53053e-05
46 *115:12 *117:10 7.8192e-05
47 *116:10 *504:A1 0
48 *116:23 *117:6 0.00012396
49 *116:23 *117:10 0.000222579
50 *116:23 *117:66 1.16578e-05
*RES
1 *467:Y *117:4 1.6 
2 *117:4 *117:6 1.14 
3 *117:6 *117:10 5.55 
4 *117:10 *117:16 6.6125 
5 *117:16 *469:A 7.8675 
6 *117:16 *473:A 4.5975 
7 *117:10 *472:A 2.755 
8 *117:6 *504:A1 8 
9 *117:4 *117:66 4.175 
10 *117:66 *475:B2 7.02 
11 *117:66 *493:A1 6.81 
*END

*D_NET *118 0.00414577
*CONN
*I *485:A2 I *D sky130_fd_sc_hd__a21bo_1
*I *469:B I *D sky130_fd_sc_hd__xnor2_1
*I *468:Y O *D sky130_fd_sc_hd__o21ai_1
*CAP
1 *485:A2 0.000149834
2 *469:B 0.000325676
3 *468:Y 0.000402654
4 *118:14 0.000878164
5 *469:B *472:B 0.000238137
6 *469:B *121:19 7.6664e-05
7 *469:B *121:34 8.08153e-06
8 *485:A2 *478:A2 0
9 *485:A2 *491:B1 0.000188957
10 *485:A2 *122:6 0.00015896
11 *118:14 *121:8 0
12 *118:14 *121:19 0
13 *118:14 *152:12 0.0004511
14 result[0] *118:14 6.06649e-05
15 *467:A *485:A2 3.68999e-05
16 *471:A1 *118:14 7.64119e-05
17 *472:A *485:A2 8.65961e-05
18 *473:A *118:14 8.55669e-05
19 *485:B1_N *485:A2 4.82863e-05
20 *101:16 *118:14 6.55328e-05
21 *115:12 *485:A2 0.000356223
22 *116:10 *485:A2 4.9968e-05
23 *116:23 *485:A2 0.00012182
24 *117:10 *485:A2 7.67415e-06
25 *117:16 *469:B 2.16917e-05
26 *117:16 *485:A2 1.46744e-05
27 *117:16 *118:14 0.000235534
*RES
1 *468:Y *118:14 16.205 
2 *118:14 *469:B 11.555 
3 *118:14 *485:A2 11.255 
*END

*D_NET *119 0.00049966
*CONN
*I *479:A2 I *D sky130_fd_sc_hd__o22a_1
*I *469:Y O *D sky130_fd_sc_hd__xnor2_1
*CAP
1 *479:A2 4.79707e-05
2 *469:Y 4.79707e-05
3 *479:A2 *429:C 0.000235568
4 *479:A2 *479:B1 0.000122325
5 *469:A *479:A2 4.58257e-05
*RES
1 *469:Y *479:A2 5.375 
*END

*D_NET *120 0.000193458
*CONN
*I *471:B1 I *D sky130_fd_sc_hd__a21o_1
*I *470:X O *D sky130_fd_sc_hd__and2b_1
*CAP
1 *471:B1 9.47261e-05
2 *470:X 9.47261e-05
3 *471:A2 *471:B1 4.00541e-06
*RES
1 *470:X *471:B1 4.7 
*END

*D_NET *121 0.00396854
*CONN
*I *493:A2 I *D sky130_fd_sc_hd__a31o_1
*I *504:A2 I *D sky130_fd_sc_hd__a311o_1
*I *472:B I *D sky130_fd_sc_hd__nand2_1
*I *473:B I *D sky130_fd_sc_hd__or2_1
*I *471:X O *D sky130_fd_sc_hd__a21o_1
*CAP
1 *493:A2 0.00012982
2 *504:A2 1.8855e-05
3 *472:B 8.27872e-05
4 *473:B 5.05305e-05
5 *471:X 0.000107947
6 *121:34 0.000626598
7 *121:19 0.000792864
8 *121:8 0.00039063
9 *473:B *554:A 0.0001249
10 *493:A2 *491:C1 0.000305832
11 *493:A2 *494:C 4.66108e-05
12 *493:A2 *499:A1 1.20052e-05
13 *493:A2 *504:A3 2.29522e-05
14 *493:A2 *504:B1 2.49909e-05
15 *493:A2 *504:C1 3.71153e-05
16 *504:A2 *504:A3 9.13949e-06
17 *121:8 *555:A 0
18 *121:19 *555:A 0
19 *121:34 *465:A 0.000164874
20 *121:34 *465:B 1.46744e-05
21 *121:34 *491:C1 5.83281e-05
22 *121:34 *504:A3 1.9872e-05
23 *121:34 *152:12 0.000462823
24 *121:34 *155:18 4.66108e-05
25 *121:34 *175:67 4.82863e-05
26 result[1] *121:8 0
27 *469:B *472:B 0.000238137
28 *469:B *121:19 7.6664e-05
29 *469:B *121:34 8.08153e-06
30 *473:A *121:19 0
31 *117:16 *472:B 4.66108e-05
32 *117:16 *121:19 0
33 *118:14 *121:8 0
34 *118:14 *121:19 0
*RES
1 *471:X *121:8 5.235 
2 *121:8 *473:B 4.74 
3 *121:8 *121:19 4.185 
4 *121:19 *472:B 5.775 
5 *121:19 *121:34 12.185 
6 *121:34 *504:A2 1.96 
7 *121:34 *493:A2 5.185 
*END

*D_NET *122 0.00227432
*CONN
*I *491:B1 I *D sky130_fd_sc_hd__o211a_1
*I *478:A2 I *D sky130_fd_sc_hd__a31o_1
*I *472:Y O *D sky130_fd_sc_hd__nand2_1
*CAP
1 *491:B1 0.000332703
2 *478:A2 0.000191232
3 *472:Y 0.000112497
4 *122:6 0.000636432
5 *478:A2 *478:A3 9.50342e-06
6 *478:A2 *152:12 6.38425e-05
7 *491:B1 *155:18 0.000203755
8 *491:B1 *175:67 0.000203755
9 *477:A2 *478:A2 0
10 *478:A1 *478:A2 9.50342e-06
11 *485:A2 *478:A2 0
12 *485:A2 *491:B1 0.000188957
13 *485:A2 *122:6 0.00015896
14 *504:A1 *491:B1 0
15 *115:12 *478:A2 4.9968e-05
16 *115:12 *491:B1 4.08514e-05
17 *116:10 *478:A2 0
18 *116:10 *491:B1 7.23602e-05
*RES
1 *472:Y *122:6 3.085 
2 *122:6 *478:A2 9.065 
3 *122:6 *491:B1 11.795 
*END

*D_NET *123 0.00045595
*CONN
*I *478:A3 I *D sky130_fd_sc_hd__a31o_1
*I *473:X O *D sky130_fd_sc_hd__or2_1
*CAP
1 *478:A3 0.000141687
2 *473:X 0.000141687
3 *478:A3 *554:A 4.92935e-05
4 *478:A3 *152:12 6.02202e-05
5 *478:A1 *478:A3 1.48969e-05
6 *478:A2 *478:A3 9.50342e-06
7 *479:A1 *478:A3 3.86607e-05
*RES
1 *473:X *478:A3 9.72 
*END

*D_NET *124 0.00135251
*CONN
*I *477:B1 I *D sky130_fd_sc_hd__a211o_1
*I *474:X O *D sky130_fd_sc_hd__a22o_1
*CAP
1 *477:B1 0.000344474
2 *474:X 0.000344474
3 *477:B1 *429:D 9.12283e-05
4 *477:B1 *460:A1 0
5 *477:B1 *476:B1 0.000116379
6 *477:B1 *479:B1 2.83649e-05
7 *477:B1 *488:A1_N 0.000120655
8 *477:B1 *175:12 8.09021e-06
9 *430:B *477:B1 8.53113e-06
10 *475:A2 *477:B1 9.21068e-05
11 *476:A1 *477:B1 0.0001947
12 *477:A2 *477:B1 3.50152e-06
*RES
1 *474:X *477:B1 14.28 
*END

*D_NET *125 0.000780386
*CONN
*I *476:B1 I *D sky130_fd_sc_hd__o21ai_1
*I *475:X O *D sky130_fd_sc_hd__o22a_1
*CAP
1 *476:B1 0.000165679
2 *475:X 0.000165679
3 *476:B1 *479:B1 4.77757e-05
4 *476:B1 *175:10 7.06865e-05
5 *476:B1 *175:12 7.23533e-05
6 *476:A1 *476:B1 0.000120655
7 *476:A2 *476:B1 2.11782e-05
8 *477:B1 *476:B1 0.000116379
*RES
1 *475:X *476:B1 11.5125 
*END

*D_NET *126 0.00215673
*CONN
*I *479:B1 I *D sky130_fd_sc_hd__o22a_1
*I *476:Y O *D sky130_fd_sc_hd__o21ai_1
*CAP
1 *479:B1 0.000308187
2 *476:Y 0.000308187
3 *479:B1 *429:C 0.000570178
4 *479:B1 *478:B1 0.000240201
5 *479:B1 *479:B2 8.65586e-05
6 *469:A *479:B1 2.30292e-05
7 *476:A2 *479:B1 8.46717e-05
8 *476:B1 *479:B1 4.77757e-05
9 *477:A1 *479:B1 2.49909e-05
10 *477:A2 *479:B1 0.000197826
11 *477:B1 *479:B1 2.83649e-05
12 *479:A1 *479:B1 0.000114433
13 *479:A2 *479:B1 0.000122325
*RES
1 *476:Y *479:B1 13.79 
*END

*D_NET *127 0.000671142
*CONN
*I *478:B1 I *D sky130_fd_sc_hd__a31o_1
*I *477:X O *D sky130_fd_sc_hd__a211o_1
*CAP
1 *478:B1 0.000153493
2 *477:X 0.000153493
3 *477:A2 *478:B1 0.000123955
4 *479:B1 *478:B1 0.000240201
*RES
1 *477:X *478:B1 6.755 
*END

*D_NET *128 0.000440829
*CONN
*I *479:B2 I *D sky130_fd_sc_hd__o22a_1
*I *478:X O *D sky130_fd_sc_hd__a31o_1
*CAP
1 *479:B2 0.000123318
2 *478:X 0.000123318
3 *469:A *479:B2 3.55028e-05
4 *479:A1 *479:B2 7.21313e-05
5 *479:B1 *479:B2 8.65586e-05
*RES
1 *478:X *479:B2 5.405 
*END

*D_NET *129 0.00136794
*CONN
*I *483:A I *D sky130_fd_sc_hd__nor2_1
*I *499:B1 I *D sky130_fd_sc_hd__a21oi_1
*I *480:X O *D sky130_fd_sc_hd__and2_1
*CAP
1 *483:A 0.000146783
2 *499:B1 7.58353e-05
3 *480:X 3.39944e-05
4 *129:6 0.000256613
5 *483:A *495:A2 0
6 *483:A *495:B1 1.71013e-05
7 *483:A *556:A 0
8 *483:A *132:12 7.23602e-05
9 *483:A *133:23 4.82863e-05
10 *483:A *179:8 2.4997e-05
11 *483:A *179:10 3.39944e-05
12 *483:A *179:16 3.05373e-05
13 *499:B1 *495:C1 0.000154106
14 *499:B1 *132:12 1.03323e-05
15 *129:6 *132:12 1.4399e-05
16 *129:6 *179:57 2.75229e-05
17 *493:B1 *499:B1 0.000308724
18 *493:B1 *129:6 0.000112349
*RES
1 *480:X *129:6 2.74 
2 *129:6 *499:B1 4.465 
3 *129:6 *483:A 8.705 
*END

*D_NET *130 0.000629952
*CONN
*I *488:B1 I *D sky130_fd_sc_hd__o2bb2a_1
*I *481:Y O *D sky130_fd_sc_hd__nand2_1
*CAP
1 *488:B1 0.00024324
2 *481:Y 0.00024324
3 *488:B1 *487:A1 0
4 *488:B1 *487:A3 0
5 *487:B2 *488:B1 6.73751e-05
6 *493:B1 *488:B1 0
7 *106:14 *488:B1 7.60965e-05
*RES
1 *481:Y *488:B1 11.76 
*END

*D_NET *131 0.00169225
*CONN
*I *487:A3 I *D sky130_fd_sc_hd__o32a_1
*I *483:B I *D sky130_fd_sc_hd__nor2_1
*I *482:Y O *D sky130_fd_sc_hd__nor2_1
*CAP
1 *487:A3 0.000171001
2 *483:B 0.000259318
3 *482:Y 0
4 *131:4 0.000430319
5 *483:B *482:A 4.92062e-05
6 *483:B *482:B 2.66586e-05
7 *483:B *484:A 6.90876e-05
8 *483:B *503:A_N 8.65905e-05
9 *483:B *133:23 0.000313852
10 *483:B *156:8 2.07184e-05
11 *483:B *156:12 0.000114492
12 *483:B *179:8 0
13 *483:B *179:10 0
14 *483:B *179:84 5.05521e-05
15 *487:A3 *487:A1 5.53249e-06
16 *487:A3 *487:B1 9.49203e-05
17 *487:A3 *156:12 0
18 *488:B1 *487:A3 0
*RES
1 *482:Y *131:4 1.6 
2 *131:4 *483:B 11.585 
3 *131:4 *487:A3 8.705 
*END

*D_NET *132 0.00323369
*CONN
*I *499:A1 I *D sky130_fd_sc_hd__a21oi_1
*I *491:C1 I *D sky130_fd_sc_hd__o211a_1
*I *483:Y O *D sky130_fd_sc_hd__nor2_1
*CAP
1 *499:A1 9.11269e-05
2 *491:C1 0.000543387
3 *483:Y 0.000412047
4 *132:12 0.00104656
5 *491:C1 *152:12 0.000119756
6 *491:C1 *175:67 0.000141599
7 *499:A1 *495:C1 5.83121e-06
8 *132:12 *495:C1 0.000200165
9 *132:12 *179:10 7.23602e-05
10 *483:A *132:12 7.23602e-05
11 *493:A2 *491:C1 0.000305832
12 *493:A2 *499:A1 1.20052e-05
13 *493:B1 *491:C1 3.82323e-06
14 *493:B1 *499:A1 0.000123774
15 *499:B1 *132:12 1.03323e-05
16 *121:34 *491:C1 5.83281e-05
17 *129:6 *132:12 1.4399e-05
*RES
1 *483:Y *132:12 11.405 
2 *132:12 *491:C1 13.205 
3 *132:12 *499:A1 4.075 
*END

*D_NET *133 0.00441661
*CONN
*I *486:A I *D sky130_fd_sc_hd__xnor2_1
*I *493:A3 I *D sky130_fd_sc_hd__a31o_1
*I *504:A3 I *D sky130_fd_sc_hd__a311o_1
*I *492:B I *D sky130_fd_sc_hd__and3b_1
*I *487:B1 I *D sky130_fd_sc_hd__o32a_1
*I *484:Y O *D sky130_fd_sc_hd__xnor2_2
*CAP
1 *486:A 0
2 *493:A3 0
3 *504:A3 0.000293709
4 *492:B 3.4179e-05
5 *487:B1 0.000212317
6 *484:Y 5.34762e-05
7 *133:40 0.000342948
8 *133:29 0.000269737
9 *133:23 0.000692234
10 *133:6 0.000771708
11 *487:B1 *437:B 0
12 *487:B1 *156:12 0
13 *492:B *141:12 4.77719e-05
14 *504:A3 *465:B 1.37328e-05
15 *504:A3 *494:C 7.00555e-05
16 *504:A3 *504:B1 2.68464e-05
17 *504:A3 *504:C1 0.000169956
18 *133:23 *484:A 1.47347e-05
19 *133:23 *495:A2 2.47313e-05
20 *133:23 *503:A_N 1.91597e-05
21 *133:23 *504:C1 0.000467068
22 *133:29 *504:C1 3.7712e-05
23 *133:29 *141:12 4.66108e-05
24 *133:29 *175:57 0.000130701
25 *133:40 *504:C1 0.000110486
26 *133:40 *141:12 5.22928e-05
27 *483:A *133:23 4.82863e-05
28 *483:B *133:23 0.000313852
29 *487:A3 *487:B1 9.49203e-05
30 *493:A1 *504:A3 5.42341e-06
31 *493:A2 *504:A3 2.29522e-05
32 *504:A2 *504:A3 9.13949e-06
33 *121:34 *504:A3 1.9872e-05
*RES
1 *484:Y *133:6 2.395 
2 *133:6 *487:B1 9.53 
3 *133:6 *133:23 10.395 
4 *133:23 *133:29 3.495 
5 *133:29 *492:B 2.05 
6 *133:29 *133:40 3.38 
7 *133:40 *504:A3 7.95 
8 *133:40 *493:A3 3.6 
9 *133:23 *486:A 1.6 
*END

*D_NET *134 0.00180031
*CONN
*I *486:B I *D sky130_fd_sc_hd__xnor2_1
*I *499:A2 I *D sky130_fd_sc_hd__a21oi_1
*I *485:X O *D sky130_fd_sc_hd__a21bo_1
*CAP
1 *486:B 7.49542e-05
2 *499:A2 0
3 *485:X 0.000380141
4 *134:18 0.000455095
5 *486:B *495:C1 3.25831e-05
6 *486:B *556:A 0
7 *486:B *147:26 1.01661e-05
8 *486:B *175:10 0.000176873
9 *134:18 *494:A 0.000119246
10 *134:18 *494:C 0.000101747
11 *134:18 *495:C1 0.000136884
12 *134:18 *175:10 0.00013521
13 *467:A *134:18 8.46717e-05
14 *107:89 *134:18 8.40394e-05
15 *116:23 *134:18 8.70433e-06
*RES
1 *485:X *134:18 10.755 
2 *134:18 *499:A2 3.6 
3 *134:18 *486:B 5.745 
*END

*D_NET *135 0.000417133
*CONN
*I *495:A2 I *D sky130_fd_sc_hd__a211o_1
*I *486:Y O *D sky130_fd_sc_hd__xnor2_1
*CAP
1 *495:A2 0.000151855
2 *486:Y 0.000151855
3 *495:A2 *429:D 5.53249e-06
4 *495:A2 *556:A 7.36562e-05
5 *483:A *495:A2 0
6 *495:A1 *495:A2 9.50342e-06
7 *133:23 *495:A2 2.47313e-05
*RES
1 *486:Y *495:A2 9.63 
*END

*D_NET *136 0.000604613
*CONN
*I *490:A I *D sky130_fd_sc_hd__nand3_1
*I *487:X O *D sky130_fd_sc_hd__o32a_1
*CAP
1 *490:A 0.00014666
2 *487:X 0.00014666
3 *107:79 *490:A 0.000311294
*RES
1 *487:X *490:A 6.425 
*END

*D_NET *137 0.000551507
*CONN
*I *490:B I *D sky130_fd_sc_hd__nand3_1
*I *488:X O *D sky130_fd_sc_hd__o2bb2a_1
*CAP
1 *490:B 0.000130614
2 *488:X 0.000130614
3 *490:B *490:C 7.89689e-05
4 *490:B *179:16 0.000141599
5 *96:18 *490:B 6.97118e-05
*RES
1 *488:X *490:B 9.975 
*END

*D_NET *138 0.00214939
*CONN
*I *490:C I *D sky130_fd_sc_hd__nand3_1
*I *489:X O *D sky130_fd_sc_hd__o2bb2a_1
*CAP
1 *490:C 0.000580268
2 *489:X 0.000580268
3 *490:C *429:D 0
4 *490:C *489:A1_N 2.30292e-05
5 *490:C *179:16 0.000227016
6 *490:C *179:22 0.000173126
7 *490:B *490:C 7.89689e-05
8 *91:28 *490:C 0.000164452
9 *96:29 *490:C 0
10 *96:37 *490:C 0
11 *99:16 *490:C 7.06865e-05
12 *99:35 *490:C 0.000204463
13 *102:14 *490:C 4.71168e-05
14 *106:20 *490:C 0
*RES
1 *489:X *490:C 19.83 
*END

*D_NET *139 0.00041252
*CONN
*I *495:B1 I *D sky130_fd_sc_hd__a211o_1
*I *490:Y O *D sky130_fd_sc_hd__nand3_1
*CAP
1 *495:B1 0.000122529
2 *490:Y 0.000122529
3 *483:A *495:B1 1.71013e-05
4 *495:A1 *495:B1 6.20952e-05
5 *107:79 *495:B1 8.8266e-05
*RES
1 *490:Y *495:B1 9.375 
*END

*D_NET *140 0.00102542
*CONN
*I *494:A I *D sky130_fd_sc_hd__nor3_1
*I *491:X O *D sky130_fd_sc_hd__o211a_1
*CAP
1 *494:A 0.000254751
2 *491:X 0.000254751
3 *494:A *492:A_N 2.79695e-05
4 *494:A *494:B 0.000132262
5 *494:A *494:C 4.77757e-05
6 *494:A *504:B1 1.79483e-05
7 *494:A *141:12 6.6746e-05
8 *494:A *175:67 9.76407e-06
9 *476:A2 *494:A 1.91597e-05
10 *504:A1 *494:A 5.88634e-05
11 *116:23 *494:A 1.61831e-05
12 *134:18 *494:A 0.000119246
*RES
1 *491:X *494:A 12.3 
*END

*D_NET *141 0.00183089
*CONN
*I *504:B1 I *D sky130_fd_sc_hd__a311o_1
*I *494:B I *D sky130_fd_sc_hd__nor3_1
*I *492:X O *D sky130_fd_sc_hd__and3b_1
*CAP
1 *504:B1 0.000135199
2 *494:B 0.000176816
3 *492:X 0.000151473
4 *141:12 0.000463488
5 *494:B *494:C 0.000142259
6 *141:12 *494:C 3.64778e-05
7 *141:12 *504:C1 6.94735e-06
8 *141:12 *175:57 2.83579e-05
9 *141:12 *175:67 1.77665e-05
10 *476:A2 *494:B 7.03981e-05
11 *492:B *141:12 4.77719e-05
12 *493:A1 *494:B 0
13 *493:A2 *504:B1 2.49909e-05
14 *494:A *494:B 0.000132262
15 *494:A *504:B1 1.79483e-05
16 *494:A *141:12 6.6746e-05
17 *504:A1 *494:B 1.80525e-05
18 *504:A3 *504:B1 2.68464e-05
19 *107:89 *494:B 4.77757e-05
20 *117:66 *494:B 0.000120407
21 *133:29 *141:12 4.66108e-05
22 *133:40 *141:12 5.22928e-05
*RES
1 *492:X *141:12 7.08 
2 *141:12 *494:B 7.695 
3 *141:12 *504:B1 5.43703 
*END

*D_NET *142 0.000987753
*CONN
*I *494:C I *D sky130_fd_sc_hd__nor3_1
*I *493:X O *D sky130_fd_sc_hd__a31o_1
*CAP
1 *494:C 0.000192041
2 *493:X 0.000192041
3 *494:C *504:C1 2.68464e-05
4 *476:A2 *494:C 4.66108e-05
5 *493:A2 *494:C 4.66108e-05
6 *494:A *494:C 4.77757e-05
7 *494:B *494:C 0.000142259
8 *504:A3 *494:C 7.00555e-05
9 *107:89 *494:C 8.52883e-05
10 *134:18 *494:C 0.000101747
11 *141:12 *494:C 3.64778e-05
*RES
1 *493:X *494:C 11.835 
*END

*D_NET *143 0.00151163
*CONN
*I *495:C1 I *D sky130_fd_sc_hd__a211o_1
*I *494:Y O *D sky130_fd_sc_hd__nor3_1
*CAP
1 *495:C1 0.000285615
2 *494:Y 0.000285615
3 *495:C1 *429:D 4.07184e-05
4 *495:C1 *480:B 0
5 *495:C1 *147:26 6.69382e-05
6 *495:C1 *175:10 3.50033e-05
7 *486:B *495:C1 3.25831e-05
8 *493:B1 *495:C1 2.45351e-05
9 *499:A1 *495:C1 5.83121e-06
10 *499:B1 *495:C1 0.000154106
11 *107:89 *495:C1 0.000195861
12 *117:66 *495:C1 4.77719e-05
13 *132:12 *495:C1 0.000200165
14 *134:18 *495:C1 0.000136884
*RES
1 *494:Y *495:C1 15.255 
*END

*D_NET *144 0.00307404
*CONN
*I *509:B1 I *D sky130_fd_sc_hd__a221o_1
*I *498:A I *D sky130_fd_sc_hd__nand2_2
*I *496:X O *D sky130_fd_sc_hd__or2_1
*CAP
1 *509:B1 0.000839309
2 *498:A 0.000101917
3 *496:X 0
4 *144:4 0.000941225
5 *498:A *145:10 0.00010596
6 *498:A *145:24 8.53113e-06
7 *498:A *146:8 7.00889e-06
8 *498:A *157:12 4.40812e-05
9 *498:A *180:39 4.66108e-05
10 *509:B1 *506:A1 5.55884e-05
11 *509:B1 *180:39 0.0001249
12 *509:B1 *180:54 0.000269107
13 *509:B1 *181:94 3.09774e-05
14 *506:B1 *509:B1 0.000260884
15 *507:B *509:B1 8.65961e-05
16 *509:B2 *509:B1 1.63356e-05
17 *509:C1 *509:B1 8.67215e-05
18 *524:A1 *498:A 4.82863e-05
*RES
1 *496:X *144:4 1.6 
2 *144:4 *498:A 7.88 
3 *144:4 *509:B1 14.035 
*END

*D_NET *145 0.00726594
*CONN
*I *510:A2 I *D sky130_fd_sc_hd__o22ai_1
*I *498:B I *D sky130_fd_sc_hd__nand2_2
*I *519:A1 I *D sky130_fd_sc_hd__a31o_1
*I *411:C1 I *D sky130_fd_sc_hd__o211a_1
*I *518:A1 I *D sky130_fd_sc_hd__a21oi_1
*I *497:Y O *D sky130_fd_sc_hd__nand2_2
*CAP
1 *510:A2 0.00104555
2 *498:B 0
3 *519:A1 0
4 *411:C1 2.14407e-05
5 *518:A1 0.000233558
6 *497:Y 9.71884e-06
7 *145:28 0.000321297
8 *145:24 0.000992726
9 *145:10 0.00103123
10 *145:8 0.00116007
11 *411:C1 *519:A2 1.77665e-05
12 *411:C1 *148:14 5.68523e-06
13 *510:A2 *152:12 0
14 *510:A2 *164:30 6.36594e-05
15 *518:A1 *411:A2 8.40213e-05
16 *518:A1 *500:A 6.03272e-05
17 *518:A1 *500:B 3.86529e-05
18 *518:A1 *148:14 6.72419e-06
19 *518:A1 *171:14 1.10978e-05
20 *145:8 *157:23 4.82919e-05
21 *145:8 *180:39 4.82919e-05
22 *145:10 *524:A2 0
23 *145:10 *157:12 0
24 *145:24 *403:A1 1.33293e-05
25 *145:24 *403:A2 0.000127311
26 *145:24 *524:A2 0
27 *145:24 *526:C 0
28 *145:24 *146:44 0.000197223
29 *145:24 *157:12 0
30 *145:24 *171:14 6.28251e-05
31 *145:24 *181:68 4.31189e-05
32 *145:28 *171:14 1.96913e-05
33 *403:B1 *145:24 0
34 *403:C1 *145:24 0
35 *411:B1 *518:A1 1.34594e-05
36 *498:A *145:10 0.00010596
37 *498:A *145:24 8.53113e-06
38 *518:B1 *411:C1 4.77757e-05
39 *518:B1 *518:A1 9.72504e-05
40 *519:B1 *145:24 0.000131168
41 *520:B2 *510:A2 0.000306561
42 *525:A *145:24 0
43 *59:10 *145:24 0.000642522
44 *91:28 *510:A2 0.000249101
*RES
1 *497:Y *145:8 4.05 
2 *145:8 *145:10 1.89 
3 *145:10 *145:24 21.76 
4 *145:24 *145:28 1.0275 
5 *145:28 *518:A1 11.1325 
6 *145:28 *411:C1 4.2825 
7 *145:24 *519:A1 3.6 
8 *145:10 *498:B 3.6 
9 *145:8 *510:A2 17.415 
*END

*D_NET *146 0.00801919
*CONN
*I *505:A I *D sky130_fd_sc_hd__nand2_1
*I *510:B1 I *D sky130_fd_sc_hd__o22ai_1
*I *411:A1 I *D sky130_fd_sc_hd__o211a_1
*I *500:A I *D sky130_fd_sc_hd__or2_1
*I *501:A I *D sky130_fd_sc_hd__nand2_1
*I *403:A1 I *D sky130_fd_sc_hd__a311o_1
*I *506:A1 I *D sky130_fd_sc_hd__o21a_1
*I *498:Y O *D sky130_fd_sc_hd__nand2_2
*CAP
1 *505:A 0
2 *510:B1 0.000659042
3 *411:A1 0
4 *500:A 0.00037643
5 *501:A 1.85694e-05
6 *403:A1 0.000165428
7 *506:A1 0.000129578
8 *498:Y 0.000174002
9 *146:57 0.000498496
10 *146:53 0.000807684
11 *146:44 0.000498069
12 *146:31 0.000784044
13 *146:25 0.000219236
14 *146:8 0.000357124
15 *403:A1 *403:A2 0.000134173
16 *500:A *500:B 1.17716e-05
17 *500:A *147:37 9.3062e-06
18 *500:A *148:14 5.74866e-05
19 *501:A *502:A2 9.53428e-06
20 *506:A1 *524:A2 0
21 *506:A1 *180:54 8.65905e-05
22 *510:B1 *489:A1_N 1.23331e-05
23 *510:B1 *511:A1 0
24 *510:B1 *147:37 8.23457e-05
25 *510:B1 *179:22 0
26 *146:31 *403:A2 0.000181322
27 *146:44 *403:A2 8.65905e-05
28 *146:44 *502:A2 3.00381e-05
29 *146:44 *512:B1 4.89295e-05
30 *146:53 *502:A2 2.05056e-05
31 *146:57 *502:A1 4.42401e-05
32 *146:57 *147:26 2.05571e-05
33 *146:57 *147:37 1.01661e-05
34 *146:57 *148:14 2.88246e-05
35 *146:57 *181:68 0
36 *411:B1 *510:B1 0.000125559
37 *414:A1_N *510:B1 0
38 *430:B *146:57 9.69559e-05
39 *498:A *146:8 7.00889e-06
40 *507:A *146:8 3.09598e-05
41 *507:B *506:A1 9.14049e-05
42 *507:B *146:31 4.18603e-06
43 *509:B1 *506:A1 5.55884e-05
44 *510:A1 *510:B1 1.46828e-05
45 *511:C1 *510:B1 0.000118081
46 *518:A1 *500:A 6.03272e-05
47 *518:B1 *500:A 8.7152e-06
48 *519:B1 *146:44 1.77665e-05
49 *520:B1 *146:25 4.80182e-05
50 *520:B1 *146:31 3.68682e-05
51 *521:B1 *510:B1 0.000387678
52 *521:B2 *510:B1 5.20968e-05
53 *524:A1 *146:8 7.67345e-05
54 *524:C1 *146:31 0
55 *525:A *146:8 2.75145e-05
56 *527:B *146:8 0.000349587
57 *32:6 *146:8 7.68414e-06
58 *32:6 *146:25 0.000160635
59 *32:10 *146:8 2.20732e-05
60 *43:19 *146:31 7.58949e-05
61 *59:10 *146:44 6.07575e-06
62 *96:48 *510:B1 8.40213e-05
63 *96:65 *510:B1 7.40446e-05
64 *105:34 *510:B1 8.23457e-05
65 *108:24 *510:B1 8.09051e-05
66 *108:24 *146:44 4.28041e-05
67 *145:24 *403:A1 1.33293e-05
68 *145:24 *146:44 0.000197223
*RES
1 *498:Y *146:8 6.37 
2 *146:8 *506:A1 8.03 
3 *146:8 *146:25 1.845 
4 *146:25 *146:31 7.93 
5 *146:31 *403:A1 4.15 
6 *146:31 *146:44 7.695 
7 *146:44 *501:A 1.96 
8 *146:44 *146:53 0.45 
9 *146:53 *146:57 4.655 
10 *146:57 *500:A 6.4802 
11 *146:57 *411:A1 3.6 
12 *146:53 *510:B1 18.485 
13 *146:25 *505:A 1.6 
*END

*D_NET *147 0.00738536
*CONN
*I *411:A2 I *D sky130_fd_sc_hd__o211a_1
*I *500:B I *D sky130_fd_sc_hd__or2_1
*I *501:B I *D sky130_fd_sc_hd__nand2_1
*I *499:Y O *D sky130_fd_sc_hd__a21oi_1
*CAP
1 *411:A2 7.96833e-05
2 *500:B 0.000236198
3 *501:B 0
4 *499:Y 0.00267698
5 *147:37 0.00043977
6 *147:26 0.00280087
7 *500:B *557:A 5.21174e-05
8 *500:B *558:A 3.02513e-05
9 *500:B *148:14 0
10 *147:26 *429:D 0.000102102
11 *147:26 *556:A 4.38051e-05
12 *147:37 *557:A 1.0183e-05
13 *147:37 *170:10 6.93232e-05
14 *411:B1 *411:A2 5.5986e-05
15 *430:B *411:A2 5.22918e-05
16 *430:B *147:26 0.000151774
17 *430:B *147:37 0.00017971
18 *486:B *147:26 1.01661e-05
19 *495:C1 *147:26 6.69382e-05
20 *500:A *500:B 1.17716e-05
21 *500:A *147:37 9.3062e-06
22 *510:B1 *147:37 8.23457e-05
23 *518:A1 *411:A2 8.40213e-05
24 *518:A1 *500:B 3.86529e-05
25 *518:B1 *500:B 0
26 *39:35 *147:26 2.37183e-05
27 *108:24 *147:37 4.66742e-05
28 *146:57 *147:26 2.05571e-05
29 *146:57 *147:37 1.01661e-05
*RES
1 *499:Y *147:26 13.357 
2 *147:26 *501:B 1.6 
3 *147:26 *147:37 5.45 
4 *147:37 *500:B 7.17 
5 *147:37 *411:A2 5.445 
*END

*D_NET *148 0.0019013
*CONN
*I *518:A2 I *D sky130_fd_sc_hd__a21oi_1
*I *502:A1 I *D sky130_fd_sc_hd__a21o_1
*I *519:A2 I *D sky130_fd_sc_hd__a31o_1
*I *500:X O *D sky130_fd_sc_hd__or2_1
*CAP
1 *518:A2 0.000132004
2 *502:A1 0.000101756
3 *519:A2 0.000181128
4 *500:X 0.000113846
5 *148:14 0.000409591
6 *148:6 0.000372557
7 *502:A1 *181:68 0
8 *518:A2 *431:A 8.65961e-05
9 *518:A2 *171:14 2.06762e-05
10 *519:A2 *171:14 5.83121e-06
11 *148:6 *171:14 4.57056e-05
12 *411:C1 *519:A2 1.77665e-05
13 *411:C1 *148:14 5.68523e-06
14 *500:A *148:14 5.74866e-05
15 *500:B *148:14 0
16 *518:A1 *148:14 6.72419e-06
17 *518:B1 *518:A2 3.83041e-05
18 *518:B1 *519:A2 5.5408e-05
19 *518:B1 *148:6 4.82919e-05
20 *518:B1 *148:14 8.90199e-05
21 *519:B1 *502:A1 2.49416e-05
22 *519:B1 *148:14 1.49193e-05
23 *146:57 *502:A1 4.42401e-05
24 *146:57 *148:14 2.88246e-05
*RES
1 *500:X *148:6 3.085 
2 *148:6 *148:14 4.7 
3 *148:14 *519:A2 6.15 
4 *148:14 *502:A1 5.235 
5 *148:6 *518:A2 3.805 
*END

*D_NET *149 0.000220134
*CONN
*I *502:A2 I *D sky130_fd_sc_hd__a21o_1
*I *501:Y O *D sky130_fd_sc_hd__nand2_1
*CAP
1 *502:A2 3.07303e-05
2 *501:Y 3.07303e-05
3 *501:A *502:A2 9.53428e-06
4 *502:B1 *502:A2 1.20052e-05
5 *108:24 *502:A2 8.65905e-05
6 *146:44 *502:A2 3.00381e-05
7 *146:53 *502:A2 2.05056e-05
*RES
1 *501:Y *502:A2 4.355 
*END

*D_NET *150 0.000474857
*CONN
*I *512:B1 I *D sky130_fd_sc_hd__o31a_1
*I *502:X O *D sky130_fd_sc_hd__a21o_1
*CAP
1 *512:B1 0.000118565
2 *502:X 0.000118565
3 *512:B1 *181:68 0.00011456
4 *430:B *512:B1 0
5 *512:A1 *512:B1 4.77757e-05
6 *527:A *512:B1 2.64607e-05
7 *146:44 *512:B1 4.89295e-05
*RES
1 *502:X *512:B1 9.48 
*END

*D_NET *151 0.00255345
*CONN
*I *504:C1 I *D sky130_fd_sc_hd__a311o_1
*I *503:X O *D sky130_fd_sc_hd__and2b_1
*CAP
1 *504:C1 0.000756311
2 *503:X 0.000756311
3 *504:C1 *175:8 0
4 *504:C1 *175:57 0.000159947
5 *493:A1 *504:C1 2.4749e-05
6 *493:A2 *504:C1 3.71153e-05
7 *493:B1 *504:C1 0
8 *494:C *504:C1 2.68464e-05
9 *504:A3 *504:C1 0.000169956
10 *133:23 *504:C1 0.000467068
11 *133:29 *504:C1 3.7712e-05
12 *133:40 *504:C1 0.000110486
13 *141:12 *504:C1 6.94735e-06
*RES
1 *503:X *504:C1 18.525 
*END

*D_NET *152 0.00539428
*CONN
*I *505:B I *D sky130_fd_sc_hd__nand2_1
*I *403:A2 I *D sky130_fd_sc_hd__a311o_1
*I *506:A2 I *D sky130_fd_sc_hd__o21a_1
*I *504:X O *D sky130_fd_sc_hd__a311o_1
*CAP
1 *505:B 0
2 *403:A2 0.000250189
3 *506:A2 0
4 *504:X 0.000990067
5 *152:23 0.000613445
6 *152:12 0.00135332
7 *152:12 *449:A 4.5783e-05
8 *152:12 *175:67 0
9 *152:23 *180:54 0.00016569
10 result[0] *152:12 6.06649e-05
11 *403:A1 *403:A2 0.000134173
12 *463:A *152:12 0
13 *464:A1 *152:12 0
14 *464:B2 *152:12 0
15 *468:B1 *152:12 7.23602e-05
16 *478:A2 *152:12 6.38425e-05
17 *478:A3 *152:12 6.02202e-05
18 *479:A1 *152:12 0
19 *491:C1 *152:12 0.000119756
20 *506:B1 *152:23 0
21 *507:B *152:23 0
22 *510:A2 *152:12 0
23 *520:A2_N *403:A2 0
24 *520:A2_N *152:23 0
25 *520:B2 *152:23 0
26 *528:C1 *403:A2 0.000114492
27 *41:21 *403:A2 0
28 *43:10 *403:A2 0
29 *43:19 *403:A2 0
30 *115:12 *152:12 4.11281e-05
31 *118:14 *152:12 0.0004511
32 *121:34 *152:12 0.000462823
33 *145:24 *403:A2 0.000127311
34 *146:31 *403:A2 0.000181322
35 *146:44 *403:A2 8.65905e-05
*RES
1 *504:X *152:12 26.015 
2 *152:12 *506:A2 1.6 
3 *152:12 *152:23 7.175 
4 *152:23 *403:A2 10.425 
5 *152:23 *505:B 3.6 
*END

*D_NET *153 0.00536464
*CONN
*I *442:A1 I *D sky130_fd_sc_hd__a221oi_1
*I *443:A1 I *D sky130_fd_sc_hd__o22a_1
*I *439:A I *D sky130_fd_sc_hd__nand2_1
*I *451:A_N I *D sky130_fd_sc_hd__nand2b_1
*I *446:B2 I *D sky130_fd_sc_hd__o22ai_1
*I *461:B2 I *D sky130_fd_sc_hd__a2bb2o_1
*I *533:X O *D sky130_fd_sc_hd__dlymetal6s2s_1
*CAP
1 *442:A1 3.82096e-05
2 *443:A1 0
3 *439:A 1.36534e-05
4 *451:A_N 0
5 *446:B2 0
6 *461:B2 0.000333271
7 *533:X 4.48022e-05
8 *153:44 1.36534e-05
9 *153:24 0.00053012
10 *153:18 0.000883193
11 *153:8 0.000780192
12 *153:6 0.00017686
13 *439:A *451:B 4.66108e-05
14 *442:A1 *442:A2 0.000139245
15 *153:6 *184:12 2.8185e-05
16 *153:8 *184:12 1.83847e-05
17 *153:8 *184:18 7.30602e-05
18 *153:18 *447:C 0.00015896
19 *153:18 *451:B 0.000120655
20 *153:18 *179:22 0
21 *153:18 *184:18 4.99619e-05
22 *153:18 *184:24 0.000352355
23 *446:A2 *461:B2 0.000157968
24 *448:B1 *461:B2 7.00889e-06
25 *448:B1 *153:24 3.00381e-05
26 *448:C1 *439:A 4.66108e-05
27 *462:A2 *461:B2 2.30184e-05
28 *471:A2 *461:B2 0
29 *91:12 *461:B2 8.40269e-05
30 *91:12 *153:24 0.000265565
31 *92:16 *442:A1 0.000139245
32 *97:46 *461:B2 7.98925e-05
33 *99:53 *153:24 0
34 *102:14 *461:B2 0.000412043
35 *105:57 *461:B2 8.6511e-05
36 *108:14 *153:18 4.9968e-05
37 *108:14 *153:24 0.000181376
*RES
1 *533:X *153:6 2.395 
2 *153:6 *153:8 1.83 
3 *153:8 *153:18 11.72 
4 *153:18 *153:24 6.665 
5 *153:24 *461:B2 13.46 
6 *153:24 *446:B2 1.6 
7 *153:18 *153:44 2 
8 *153:44 *451:A_N 1.6 
9 *153:44 *439:A 2.05 
10 *153:8 *443:A1 1.6 
11 *153:6 *442:A1 7.235 
*END

*D_NET *154 0.00259264
*CONN
*I *458:A2 I *D sky130_fd_sc_hd__o21a_1
*I *449:B I *D sky130_fd_sc_hd__nand2_1
*I *450:B I *D sky130_fd_sc_hd__xnor2_2
*I *470:A_N I *D sky130_fd_sc_hd__and2b_1
*I *534:X O *D sky130_fd_sc_hd__dlymetal6s2s_1
*CAP
1 *458:A2 9.61692e-05
2 *449:B 0
3 *450:B 0
4 *470:A_N 8.02458e-05
5 *534:X 0
6 *154:40 0.000416717
7 *154:23 0.000589665
8 *154:4 0.000349362
9 *470:A_N *470:B 0.000161344
10 *154:23 *470:B 0
11 *154:40 *449:A 8.23457e-05
12 *458:B1 *458:A2 4.8854e-05
13 *459:B1 *458:A2 0.000139265
14 *459:B1 *154:40 4.99619e-05
15 *463:A *154:23 0
16 *468:B1 *154:40 8.40269e-05
17 *534:A *470:A_N 4.18603e-06
18 *101:8 *458:A2 0
19 *101:8 *154:40 2.61299e-05
20 *101:39 *458:A2 0.000429132
21 *101:39 *154:40 3.52345e-05
*RES
1 *534:X *154:4 1.6 
2 *154:4 *470:A_N 7.49 
3 *154:4 *154:23 7.975 
4 *154:23 *450:B 1.6 
5 *154:23 *154:40 5.445 
6 *154:40 *449:B 1.6 
7 *154:40 *458:A2 5.86 
*END

*D_NET *155 0.00155064
*CONN
*I *491:A2 I *D sky130_fd_sc_hd__o211a_1
*I *492:A_N I *D sky130_fd_sc_hd__and3b_1
*I *466:B I *D sky130_fd_sc_hd__nand2_1
*I *465:B I *D sky130_fd_sc_hd__or2_1
*I *535:X O *D sky130_fd_sc_hd__buf_1
*CAP
1 *491:A2 0
2 *492:A_N 0.000106593
3 *466:B 0
4 *465:B 9.37271e-05
5 *535:X 0.00010295
6 *155:34 0.000106593
7 *155:18 0.000238041
8 *155:12 0.000247264
9 *465:B *465:A 8.8266e-05
10 *465:B *175:67 3.83041e-05
11 *492:A_N *175:67 6.41593e-05
12 *155:12 *175:67 9.77761e-06
13 *491:A1 *492:A_N 8.64421e-05
14 *491:A1 *155:12 5.81774e-05
15 *491:A1 *155:18 3.60024e-06
16 *491:B1 *155:18 0.000203755
17 *494:A *492:A_N 2.79695e-05
18 *504:A3 *465:B 1.37328e-05
19 *121:34 *465:B 1.46744e-05
20 *121:34 *155:18 4.66108e-05
*RES
1 *535:X *155:12 5.535 
2 *155:12 *155:18 4.85 
3 *155:18 *465:B 3.445 
4 *155:18 *466:B 1.6 
5 *155:12 *155:34 2 
6 *155:34 *492:A_N 3.79 
7 *155:34 *491:A2 1.6 
*END

*D_NET *156 0.00151299
*CONN
*I *484:B I *D sky130_fd_sc_hd__xnor2_2
*I *503:A_N I *D sky130_fd_sc_hd__and2b_1
*I *481:B I *D sky130_fd_sc_hd__nand2_1
*I *482:B I *D sky130_fd_sc_hd__nor2_1
*I *480:B I *D sky130_fd_sc_hd__and2_1
*I *536:X O *D sky130_fd_sc_hd__dlymetal6s2s_1
*CAP
1 *484:B 0
2 *503:A_N 2.68391e-05
3 *481:B 0
4 *482:B 6.82135e-05
5 *480:B 0.000115844
6 *536:X 0.000134909
7 *156:39 2.68391e-05
8 *156:14 0.00018917
9 *156:12 0.000127438
10 *156:8 0.000257233
11 *480:B *481:A 4.00541e-06
12 *480:B *482:A 4.60584e-05
13 *480:B *179:57 5.30673e-05
14 *480:B *179:64 2.30292e-05
15 *482:B *482:A 3.54536e-05
16 *503:A_N *484:A 0.000122325
17 *156:8 *179:8 0
18 *156:12 *179:10 0
19 *156:12 *179:16 0
20 *156:14 *481:A 5.4155e-06
21 *156:14 *482:A 9.53428e-06
22 *483:B *482:B 2.66586e-05
23 *483:B *503:A_N 8.65905e-05
24 *483:B *156:8 2.07184e-05
25 *483:B *156:12 0.000114492
26 *487:A3 *156:12 0
27 *487:B1 *156:12 0
28 *495:C1 *480:B 0
29 *133:23 *503:A_N 1.91597e-05
*RES
1 *536:X *156:8 5.745 
2 *156:8 *156:12 4.145 
3 *156:12 *156:14 0.36 
4 *156:14 *480:B 3.79 
5 *156:14 *482:B 3.1 
6 *156:12 *481:B 1.6 
7 *156:8 *156:39 2 
8 *156:39 *503:A_N 2.74 
9 *156:39 *484:B 1.6 
*END

*D_NET *157 0.0019781
*CONN
*I *526:A_N I *D sky130_fd_sc_hd__and3b_1
*I *524:A2 I *D sky130_fd_sc_hd__o211a_1
*I *497:B I *D sky130_fd_sc_hd__nand2_2
*I *496:B I *D sky130_fd_sc_hd__or2_1
*I *537:X O *D sky130_fd_sc_hd__buf_1
*CAP
1 *526:A_N 8.46409e-05
2 *524:A2 0.000188702
3 *497:B 0
4 *496:B 0
5 *537:X 5.60513e-05
6 *157:23 0.000369693
7 *157:12 0.000315222
8 *157:6 0.000274922
9 *524:A2 *180:54 4.82863e-05
10 *526:A_N *526:C 6.19997e-05
11 *157:6 *526:C 1.83847e-05
12 *157:12 *526:C 0.000164686
13 *157:12 *180:10 0.000116158
14 *157:23 *497:A 9.53428e-06
15 *157:23 *180:32 3.50581e-05
16 *157:23 *180:39 9.07709e-05
17 *157:23 *180:54 3.6762e-05
18 *498:A *157:12 4.40812e-05
19 *506:A1 *524:A2 0
20 *507:B *524:A2 0
21 *525:A *524:A2 5.53249e-06
22 *547:A *157:12 9.32397e-06
23 *145:8 *157:23 4.82919e-05
24 *145:10 *524:A2 0
25 *145:10 *157:12 0
26 *145:24 *524:A2 0
27 *145:24 *157:12 0
*RES
1 *537:X *157:6 2.395 
2 *157:6 *157:12 7.42 
3 *157:12 *496:B 1.6 
4 *157:12 *157:23 3.84 
5 *157:23 *497:B 1.6 
6 *157:23 *524:A2 7.94 
7 *157:6 *526:A_N 3.085 
*END

*D_NET *158 0.00187545
*CONN
*I *514:B I *D sky130_fd_sc_hd__nor2_1
*I *515:B I *D sky130_fd_sc_hd__or2_1
*I *513:B I *D sky130_fd_sc_hd__nand2_1
*I *401:A_N I *D sky130_fd_sc_hd__nand2b_1
*I *538:X O *D sky130_fd_sc_hd__buf_1
*CAP
1 *514:B 0
2 *515:B 0
3 *513:B 7.60958e-05
4 *401:A_N 0
5 *538:X 0.000299456
6 *158:29 0.00016578
7 *158:20 0.000102715
8 *158:18 0.000312486
9 *513:B *513:A 7.45031e-05
10 *513:B *181:39 8.8266e-05
11 *158:18 *181:14 7.60917e-05
12 *158:18 *181:37 2.68464e-05
13 *158:20 *181:37 2.10214e-05
14 *158:29 *513:A 0
15 *158:29 *514:A 1.20052e-05
16 *158:29 *181:37 5.7875e-05
17 *158:29 *181:39 0.000149571
18 *402:A *513:B 0.000274659
19 *402:A *158:29 4.99619e-05
20 *528:A1 *158:18 4.6863e-05
21 *528:A1 *158:20 2.68526e-05
22 *548:A *158:18 1.4399e-05
*RES
1 *538:X *158:18 10.07 
2 *158:18 *158:20 0.45 
3 *158:20 *401:A_N 1.6 
4 *158:20 *158:29 2.19 
5 *158:29 *513:B 4.48 
6 *158:29 *515:B 1.6 
7 *158:18 *514:B 1.6 
*END

*D_NET *159 0.000998456
*CONN
*I *529:B I *D sky130_fd_sc_hd__or2_1
*I *420:A_N I *D sky130_fd_sc_hd__and2b_1
*I *399:B I *D sky130_fd_sc_hd__nand2_1
*I *539:X O *D sky130_fd_sc_hd__clkbuf_1
*CAP
1 *529:B 0.000156053
2 *420:A_N 0
3 *399:B 1.60691e-05
4 *539:X 0.000143906
5 *159:12 1.60691e-05
6 *159:10 0.000299959
7 *399:B *420:B 5.43591e-06
8 *399:B *431:C 2.92125e-05
9 *399:B *182:16 4.81878e-05
10 *529:B *431:C 4.9968e-05
11 *529:B *182:16 0.000134429
12 *529:B *182:20 2.84447e-05
13 *529:B *182:30 0
14 *159:10 *431:C 5.23362e-05
15 *539:A *159:10 1.83847e-05
*RES
1 *539:X *159:10 5.685 
2 *159:10 *159:12 2 
3 *159:12 *399:B 2.1925 
4 *159:12 *420:A_N 1.6 
5 *159:10 *529:B 6.06 
*END

*D_NET *160 0.00164694
*CONN
*I *432:A_N I *D sky130_fd_sc_hd__nand2b_1
*I *416:B I *D sky130_fd_sc_hd__nand2_1
*I *415:B I *D sky130_fd_sc_hd__or2_1
*I *540:X O *D sky130_fd_sc_hd__clkbuf_1
*CAP
1 *432:A_N 1.37432e-05
2 *416:B 5.65296e-05
3 *415:B 0.000111563
4 *540:X 3.01015e-05
5 *160:21 0.000170805
6 *160:8 0.000242197
7 *415:B *183:12 1.01661e-05
8 *416:B *416:A 1.85674e-05
9 *416:B *183:29 0.00017029
10 *160:21 *432:B 1.12643e-05
11 *160:21 *183:29 4.82863e-05
12 *417:B *416:B 3.95724e-05
13 *417:B *432:A_N 4.00541e-06
14 *424:B *416:B 7.00889e-06
15 *434:A2 *415:B 3.0283e-05
16 *434:A3 *415:B 0.000162325
17 *434:A3 *160:21 3.64998e-06
18 *434:B1 *415:B 4.5783e-05
19 *540:A *415:B 6.5398e-05
20 *540:A *160:8 5.21046e-05
21 *72:14 *416:B 1.17409e-05
22 *92:16 *415:B 0.000254644
23 *92:16 *160:8 8.69157e-05
*RES
1 *540:X *160:8 4.725 
2 *160:8 *415:B 7.785 
3 *160:8 *160:21 3.485 
4 *160:21 *416:B 3.445 
5 *160:21 *432:A_N 1.96 
*END

*D_NET *161 0.00241442
*CONN
*I *532:A I *D sky130_fd_sc_hd__buf_2
*I *456:C I *D sky130_fd_sc_hd__nor3_4
*I *541:X O *D sky130_fd_sc_hd__buf_1
*CAP
1 *532:A 0.000119127
2 *456:C 0
3 *541:X 0.000282868
4 *161:10 0.000401996
5 *532:A *456:B 0.000185713
6 *532:A *162:8 0.000115046
7 *532:A *177:10 7.21491e-06
8 *532:A *178:8 0.00017162
9 *161:10 *441:B 4.54919e-05
10 *161:10 *442:B1 1.48096e-05
11 *161:10 *442:B2 0.00014429
12 *161:10 *442:C1 8.40269e-05
13 *161:10 *454:B 8.8266e-05
14 *161:10 *177:10 7.12769e-05
15 *161:10 *177:37 0.00015639
16 *161:10 *178:8 8.4713e-05
17 *443:B2 *161:10 0.000232999
18 *542:A *532:A 2.03321e-05
19 *92:8 *161:10 7.47215e-05
20 *92:16 *161:10 0.000113517
*RES
1 *541:X *161:10 11.52 
2 *161:10 *456:C 3.6 
3 *161:10 *532:A 7.785 
*END

*D_NET *162 0.000728676
*CONN
*I *531:A I *D sky130_fd_sc_hd__clkbuf_2
*I *456:B I *D sky130_fd_sc_hd__nor3_4
*I *542:X O *D sky130_fd_sc_hd__buf_1
*CAP
1 *531:A 0
2 *456:B 6.67391e-05
3 *542:X 4.17397e-05
4 *162:8 0.000108479
5 *456:B *177:10 0.000118513
6 *532:A *456:B 0.000185713
7 *532:A *162:8 0.000115046
8 *542:A *456:B 3.59902e-05
9 *542:A *162:8 5.64565e-05
*RES
1 *542:X *162:8 4.98 
2 *162:8 *456:B 5.745 
3 *162:8 *531:A 3.6 
*END

*D_NET *163 0.0018898
*CONN
*I *530:A I *D sky130_fd_sc_hd__buf_2
*I *456:A I *D sky130_fd_sc_hd__nor3_4
*I *454:C_N I *D sky130_fd_sc_hd__or3b_2
*I *543:X O *D sky130_fd_sc_hd__buf_1
*CAP
1 *530:A 9.73191e-06
2 *456:A 2.61242e-05
3 *454:C_N 0.000120511
4 *543:X 0.000112116
5 *163:12 0.000245499
6 *163:10 0.000220711
7 *454:C_N *454:B 8.13314e-05
8 *454:C_N *176:10 0.000109016
9 *454:C_N *176:14 0.000241169
10 *454:C_N *177:37 7.06865e-05
11 *454:C_N *178:94 0.000183745
12 *456:A *176:75 4.66108e-05
13 *530:A *177:66 4.82863e-05
14 *163:12 *176:8 0.000109995
15 *163:12 *176:10 2.92496e-05
16 *163:12 *178:94 4.14369e-05
17 *438:B *163:12 0
18 *542:A *163:10 5.38986e-06
19 *542:A *163:12 3.57768e-05
20 *543:A *163:10 0.000104132
21 *107:79 *530:A 4.82863e-05
*RES
1 *543:X *163:10 5.43 
2 *163:10 *163:12 2.4 
3 *163:12 *454:C_N 7.785 
4 *163:12 *456:A 4.05 
5 *163:10 *530:A 4.05 
*END

*D_NET *164 0.00703334
*CONN
*I *448:A1 I *D sky130_fd_sc_hd__a211o_1
*I *474:B2 I *D sky130_fd_sc_hd__a22o_1
*I *459:A1 I *D sky130_fd_sc_hd__o22a_1
*I *458:A1 I *D sky130_fd_sc_hd__o21a_1
*I *449:A I *D sky130_fd_sc_hd__nand2_1
*I *470:B I *D sky130_fd_sc_hd__and2b_1
*I *450:A I *D sky130_fd_sc_hd__xnor2_2
*I *544:X O *D sky130_fd_sc_hd__clkbuf_2
*CAP
1 *448:A1 6.37127e-05
2 *474:B2 5.90472e-05
3 *459:A1 2.97488e-05
4 *458:A1 0.00010838
5 *449:A 9.06631e-05
6 *470:B 0.000335384
7 *450:A 0
8 *544:X 0
9 *164:79 0.000187554
10 *164:68 0.000601945
11 *164:45 0.000900975
12 *164:30 0.000645937
13 *164:8 0.000435595
14 *164:4 0.000370292
15 *448:A1 *166:16 1.19928e-05
16 *164:68 *166:16 2.39856e-05
17 *164:79 *166:16 4.01778e-05
18 *430:B *164:68 3.23391e-05
19 *448:A2 *448:A1 8.40269e-05
20 *448:C1 *448:A1 1.37328e-05
21 *459:B1 *164:68 0.000222813
22 *459:B2 *459:A1 7.55702e-05
23 *459:B2 *164:68 2.01565e-05
24 *459:B2 *164:79 3.20202e-05
25 *461:B1 *459:A1 0
26 *461:B1 *164:68 0.000118081
27 *463:A *449:A 5.53249e-06
28 *463:A *470:B 0
29 *468:B1 *449:A 4.9968e-05
30 *470:A_N *470:B 0.000161344
31 *471:A1 *470:B 0
32 *506:B1 *458:A1 5.13029e-05
33 *510:A2 *164:30 6.36594e-05
34 *534:A *470:B 0
35 *91:28 *449:A 7.63204e-05
36 *91:28 *164:8 0
37 *91:28 *164:30 8.65961e-05
38 *91:28 *164:45 0.00060564
39 *91:28 *164:68 0.000331382
40 *99:16 *474:B2 3.09233e-05
41 *99:35 *474:B2 0.000152127
42 *101:39 *449:A 4.41506e-05
43 *102:14 *448:A1 0.000146408
44 *102:14 *164:79 4.82919e-05
45 *105:57 *164:68 0.000284969
46 *106:20 *474:B2 5.53249e-06
47 *106:26 *474:B2 0.000100544
48 *106:26 *164:68 1.08758e-05
49 *106:26 *164:79 0.000145515
50 *152:12 *449:A 4.5783e-05
51 *154:23 *470:B 0
52 *154:40 *449:A 8.23457e-05
*RES
1 *544:X *164:4 1.6 
2 *164:4 *164:8 3.635 
3 *164:8 *450:A 3.6 
4 *164:8 *470:B 9.54 
5 *164:4 *164:30 4.245 
6 *164:30 *449:A 8.03 
7 *164:30 *164:45 5.625 
8 *164:45 *458:A1 7.235 
9 *164:45 *164:68 13.51 
10 *164:68 *459:A1 2.5825 
11 *164:68 *164:79 2.175 
12 *164:79 *474:B2 7.745 
13 *164:79 *448:A1 3.445 
*END

*D_NET *165 0.000364442
*CONN
*I *552:A I *D sky130_fd_sc_hd__buf_2
*I *434:X O *D sky130_fd_sc_hd__a32o_1
*CAP
1 *552:A 0.000100899
2 *434:X 0.000100899
3 carry *552:A 2.10433e-05
4 *540:A *552:A 0.000141599
5 *107:14 *552:A 0
*RES
1 *434:X *552:A 9.285 
*END

*D_NET *166 0.00293047
*CONN
*I *429:A I *D sky130_fd_sc_hd__or4_1
*I *553:A I *D sky130_fd_sc_hd__buf_2
*I *448:X O *D sky130_fd_sc_hd__a211o_1
*CAP
1 *429:A 0
2 *553:A 0.00026712
3 *448:X 0.000509126
4 *166:16 0.000776246
5 *553:A *429:B 1.77665e-05
6 *553:A *429:C 4.89295e-05
7 *553:A *429:D 2.20014e-05
8 *166:16 *429:C 2.01504e-05
9 *166:16 *429:D 8.92155e-05
10 *166:16 *460:A1 4.82919e-05
11 *430:B *166:16 4.75576e-05
12 *448:A1 *166:16 1.19928e-05
13 *448:A2 *166:16 5.83121e-06
14 *459:B2 *166:16 0.000158175
15 *460:A2 *166:16 4.15208e-05
16 *460:B1_N *166:16 0.000118964
17 *462:C1 *166:16 8.4841e-05
18 *471:A2 *553:A 0.000504267
19 *471:A2 *166:16 8.35068e-05
20 *105:71 *166:16 1.08056e-05
21 *164:68 *166:16 2.39856e-05
22 *164:79 *166:16 4.01778e-05
*RES
1 *448:X *166:16 14.195 
2 *166:16 *553:A 11.435 
3 *166:16 *429:A 1.6 
*END

*D_NET *167 0.00234677
*CONN
*I *554:A I *D sky130_fd_sc_hd__buf_2
*I *429:B I *D sky130_fd_sc_hd__or4_1
*I *464:X O *D sky130_fd_sc_hd__o32a_1
*CAP
1 *554:A 0.000539495
2 *429:B 6.57574e-05
3 *464:X 0.000197686
4 *167:10 0.000802938
5 *429:B *429:D 1.14169e-05
6 *554:A *429:C 0
7 *464:A2 *167:10 0.00012349
8 *471:A2 *429:B 2.99981e-06
9 *473:B *554:A 0.0001249
10 *478:A1 *554:A 0.000140145
11 *478:A3 *554:A 4.92935e-05
12 *553:A *429:B 1.77665e-05
13 *92:54 *554:A 2.49909e-05
14 *92:75 *554:A 6.28498e-05
15 *92:75 *167:10 0.000183043
*RES
1 *464:X *167:10 6.885 
2 *167:10 *429:B 4.395 
3 *167:10 *554:A 13.035 
*END

*D_NET *168 0.00440753
*CONN
*I *429:C I *D sky130_fd_sc_hd__or4_1
*I *555:A I *D sky130_fd_sc_hd__buf_2
*I *479:X O *D sky130_fd_sc_hd__o22a_1
*CAP
1 *429:C 0.00112803
2 *555:A 0.000132015
3 *479:X 0.000152472
4 *168:6 0.00141252
5 *429:C *429:D 8.52845e-05
6 result[2] *555:A 0
7 *469:A *429:C 8.44077e-05
8 *469:A *168:6 0.000200615
9 *476:A2 *429:C 2.97004e-06
10 *477:A1 *429:C 0.000334396
11 *479:A2 *429:C 0.000235568
12 *479:B1 *429:C 0.000570178
13 *553:A *429:C 4.89295e-05
14 *554:A *429:C 0
15 *107:89 *429:C 0
16 *121:8 *555:A 0
17 *121:19 *555:A 0
18 *166:16 *429:C 2.01504e-05
*RES
1 *479:X *168:6 3.775 
2 *168:6 *555:A 7.43 
3 *168:6 *429:C 23.27 
*END

*D_NET *169 0.00342668
*CONN
*I *556:A I *D sky130_fd_sc_hd__buf_2
*I *429:D I *D sky130_fd_sc_hd__or4_1
*I *495:X O *D sky130_fd_sc_hd__a211o_1
*CAP
1 *556:A 0.000235977
2 *429:D 0.000604804
3 *495:X 0
4 *169:6 0.00084078
5 *429:D *175:10 0
6 *429:D *179:16 0
7 *556:A *175:8 0
8 *556:A *175:10 0
9 *556:A *179:8 0
10 *429:B *429:D 1.14169e-05
11 *429:C *429:D 8.52845e-05
12 *430:B *429:D 0.000380487
13 *460:A2 *429:D 0.000306527
14 *471:A2 *429:D 1.16854e-05
15 *475:A2 *429:D 0.000113527
16 *477:B1 *429:D 9.12283e-05
17 *483:A *556:A 0
18 *486:B *556:A 0
19 *490:C *429:D 0
20 *495:A1 *429:D 4.91927e-05
21 *495:A2 *429:D 5.53249e-06
22 *495:A2 *556:A 7.36562e-05
23 *495:C1 *429:D 4.07184e-05
24 *546:A *556:A 0
25 *553:A *429:D 2.20014e-05
26 *96:29 *429:D 0.000307081
27 *99:35 *429:D 1.16578e-05
28 *147:26 *429:D 0.000102102
29 *147:26 *556:A 4.38051e-05
30 *166:16 *429:D 8.92155e-05
*RES
1 *495:X *169:6 3.6 
2 *169:6 *429:D 18.285 
3 *169:6 *556:A 7.785 
*END

*D_NET *170 0.00234412
*CONN
*I *430:A I *D sky130_fd_sc_hd__or2_1
*I *557:A I *D sky130_fd_sc_hd__buf_2
*I *512:X O *D sky130_fd_sc_hd__o31a_1
*CAP
1 *430:A 0
2 *557:A 0.000300293
3 *512:X 0.000357685
4 *170:10 0.000657978
5 *557:A *558:A 0
6 *557:A *559:A 0.00020613
7 result[4] *557:A 2.75145e-05
8 result[6] *557:A 3.00381e-05
9 *411:B1 *170:10 0.000266618
10 *412:A *557:A 0
11 *412:A *170:10 0
12 *430:B *170:10 0
13 *431:D *557:A 5.39718e-05
14 *500:B *557:A 5.21174e-05
15 *527:A *170:10 0.00031227
16 *147:37 *557:A 1.0183e-05
17 *147:37 *170:10 6.93232e-05
*RES
1 *512:X *170:10 10.14 
2 *170:10 *557:A 9.96 
3 *170:10 *430:A 3.6 
*END

*D_NET *171 0.00259813
*CONN
*I *431:A I *D sky130_fd_sc_hd__nor4_1
*I *558:A I *D sky130_fd_sc_hd__buf_2
*I *528:Y O *D sky130_fd_sc_hd__o211ai_1
*CAP
1 *431:A 0.00010674
2 *558:A 0.000168287
3 *528:Y 0.000350594
4 *171:14 0.000625621
5 *431:A *559:A 8.65961e-05
6 *558:A *181:14 0
7 *171:14 *181:14 5.39961e-05
8 *171:14 *181:68 0.000204456
9 *500:B *558:A 3.02513e-05
10 *518:A1 *171:14 1.10978e-05
11 *518:A2 *431:A 8.65961e-05
12 *518:A2 *171:14 2.06762e-05
13 *518:B1 *171:14 6.11331e-05
14 *519:A2 *171:14 5.83121e-06
15 *528:A1 *171:14 0.000273639
16 *528:B1 *171:14 0.00016031
17 *557:A *558:A 0
18 *40:10 *431:A 0.000199532
19 *40:10 *171:14 2.16917e-05
20 *43:51 *171:14 2.8585e-06
21 *145:24 *171:14 6.28251e-05
22 *145:28 *171:14 1.96913e-05
23 *148:6 *171:14 4.57056e-05
*RES
1 *528:Y *171:14 13.55 
2 *171:14 *558:A 8.3 
3 *171:14 *431:A 4.81 
*END

*D_NET *172 0.00148951
*CONN
*I *431:B I *D sky130_fd_sc_hd__nor4_1
*I *559:A I *D sky130_fd_sc_hd__buf_2
*I *414:X O *D sky130_fd_sc_hd__o2bb2a_1
*CAP
1 *431:B 0
2 *559:A 0.000132593
3 *414:X 0.000166701
4 *172:14 0.000299294
5 *413:A *559:A 0
6 *413:A *172:14 2.97004e-06
7 *413:B *559:A 0
8 *413:B *172:14 0.000116165
9 *414:A2_N *172:14 0
10 *418:A1 *172:14 8.40269e-05
11 *418:A3 *172:14 8.65961e-05
12 *431:A *559:A 8.65961e-05
13 *431:D *559:A 8.8266e-05
14 *431:D *172:14 0.000122325
15 *557:A *559:A 0.00020613
16 *40:10 *559:A 2.29156e-05
17 *40:10 *172:14 7.49327e-05
*RES
1 *414:X *172:14 9.26 
2 *172:14 *559:A 9.14 
3 *172:14 *431:B 1.6 
*END

*D_NET *173 0.00414107
*CONN
*I *560:A I *D sky130_fd_sc_hd__buf_2
*I *431:C I *D sky130_fd_sc_hd__nor4_1
*I *428:X O *D sky130_fd_sc_hd__o2bb2a_1
*CAP
1 *560:A 0.000299776
2 *431:C 0.000568594
3 *428:X 0
4 *173:4 0.00086837
5 *431:C *561:A 0.000232999
6 *431:C *182:12 5.21046e-05
7 *431:C *182:16 2.32506e-05
8 *399:B *431:C 2.92125e-05
9 *408:A2 *431:C 0
10 *413:A *431:C 2.49909e-05
11 *418:A1 *431:C 0.000112349
12 *418:B1 *431:C 2.30292e-05
13 *421:A2 *560:A 2.39856e-05
14 *423:C *560:A 4.43871e-06
15 *428:A1_N *560:A 1.20411e-05
16 *428:A2_N *560:A 8.49205e-05
17 *428:B1 *560:A 2.11084e-05
18 *428:B2 *560:A 6.55406e-05
19 *433:A2 *431:C 5.98004e-06
20 *434:A2 *560:A 4.19884e-05
21 *529:B *431:C 4.9968e-05
22 *40:10 *431:C 4.99619e-05
23 *54:10 *431:C 0
24 *55:8 *431:C 0.000433003
25 *56:16 *431:C 9.07251e-05
26 *61:33 *431:C 3.96737e-05
27 *61:33 *560:A 6.66009e-05
28 *72:18 *431:C 6.52181e-05
29 *72:24 *431:C 0.000136182
30 *73:10 *431:C 0.000641708
31 *76:6 *560:A 2.10134e-05
32 *159:10 *431:C 5.23362e-05
*RES
1 *428:X *173:4 1.6 
2 *173:4 *431:C 21.365 
3 *173:4 *560:A 11.36 
*END

*D_NET *174 0.000816665
*CONN
*I *561:A I *D sky130_fd_sc_hd__buf_2
*I *431:Y O *D sky130_fd_sc_hd__nor4_1
*CAP
1 *561:A 0.000236436
2 *431:Y 0.000236436
3 *413:A *561:A 3.84409e-05
4 *414:A2_N *561:A 7.23533e-05
5 *431:C *561:A 0.000232999
*RES
1 *431:Y *561:A 11.01 
*END

*D_NET *175 0.00663075
*CONN
*I *435:A I *D sky130_fd_sc_hd__inv_2
*I *492:C I *D sky130_fd_sc_hd__and3b_1
*I *466:A I *D sky130_fd_sc_hd__nand2_1
*I *465:A I *D sky130_fd_sc_hd__or2_1
*I *488:A1_N I *D sky130_fd_sc_hd__o2bb2a_1
*I *475:A1 I *D sky130_fd_sc_hd__o22a_1
*I *460:A1 I *D sky130_fd_sc_hd__a21bo_1
*I *545:X O *D sky130_fd_sc_hd__clkbuf_2
*CAP
1 *435:A 0.000308541
2 *492:C 0
3 *466:A 0
4 *465:A 3.85296e-05
5 *488:A1_N 0.00023982
6 *475:A1 0.000134469
7 *460:A1 0.000193033
8 *545:X 0
9 *175:67 0.00038824
10 *175:57 0.00042132
11 *175:12 0.00036384
12 *175:10 0.000617863
13 *175:8 0.00049391
14 *175:4 0.000389136
15 *429:D *175:10 0
16 *430:B *460:A1 2.46089e-05
17 *460:A2 *460:A1 4.66108e-05
18 *462:B1 *460:A1 0
19 *465:B *465:A 8.8266e-05
20 *465:B *175:67 3.83041e-05
21 *475:A2 *475:A1 1.52352e-05
22 *475:B2 *460:A1 2.97746e-05
23 *475:B2 *175:10 8.64916e-05
24 *475:B2 *175:12 4.45827e-05
25 *476:A1 *488:A1_N 9.78321e-05
26 *476:B1 *175:10 7.06865e-05
27 *476:B1 *175:12 7.23533e-05
28 *477:B1 *460:A1 0
29 *477:B1 *488:A1_N 0.000120655
30 *477:B1 *175:12 8.09021e-06
31 *486:B *175:10 0.000176873
32 *487:B2 *475:A1 4.82919e-05
33 *491:A1 *175:67 8.52845e-05
34 *491:B1 *175:67 0.000203755
35 *491:C1 *175:67 0.000141599
36 *492:A_N *175:67 6.41593e-05
37 *493:A1 *175:10 0.000112396
38 *494:A *175:67 9.76407e-06
39 *495:C1 *175:10 3.50033e-05
40 *504:C1 *175:8 0
41 *504:C1 *175:57 0.000159947
42 *545:A *435:A 8.696e-05
43 *556:A *175:8 0
44 *556:A *175:10 0
45 *92:54 *475:A1 1.16854e-05
46 *96:18 *488:A1_N 0.000200264
47 *105:71 *460:A1 0.000163008
48 *105:71 *475:A1 3.83194e-05
49 *106:14 *488:A1_N 9.53428e-06
50 *106:20 *488:A1_N 0.000168452
51 *121:34 *465:A 0.000164874
52 *121:34 *175:67 4.82863e-05
53 *133:29 *175:57 0.000130701
54 *134:18 *175:10 0.00013521
55 *141:12 *175:57 2.83579e-05
56 *141:12 *175:67 1.77665e-05
57 *152:12 *175:67 0
58 *155:12 *175:67 9.77761e-06
59 *166:16 *460:A1 4.82919e-05
*RES
1 *545:X *175:4 1.6 
2 *175:4 *175:8 3.125 
3 *175:8 *175:10 7.245 
4 *175:10 *175:12 1.125 
5 *175:12 *460:A1 7.155 
6 *175:12 *475:A1 5.79 
7 *175:10 *488:A1_N 8.55375 
8 *175:8 *175:57 4.175 
9 *175:57 *175:67 11.005 
10 *175:67 *465:A 3.085 
11 *175:67 *466:A 1.6 
12 *175:57 *492:C 1.6 
13 *175:4 *435:A 6.22 
*END

*D_NET *176 0.0063113
*CONN
*I *438:A I *D sky130_fd_sc_hd__nor2_2
*I *455:C I *D sky130_fd_sc_hd__and3b_1
*I *457:A I *D sky130_fd_sc_hd__or3_2
*I *487:A1 I *D sky130_fd_sc_hd__o32a_1
*I *444:A I *D sky130_fd_sc_hd__or3b_4
*I *440:A I *D sky130_fd_sc_hd__nor3b_2
*I *445:C I *D sky130_fd_sc_hd__nand3b_4
*I *442:B1 I *D sky130_fd_sc_hd__a221oi_1
*I *447:A I *D sky130_fd_sc_hd__and3_2
*I *441:A I *D sky130_fd_sc_hd__or3b_2
*I *530:X O *D sky130_fd_sc_hd__buf_2
*CAP
1 *438:A 0
2 *455:C 0
3 *457:A 0
4 *487:A1 0.000120209
5 *444:A 0.000108872
6 *440:A 8.69337e-06
7 *445:C 7.37532e-05
8 *442:B1 0.000114361
9 *447:A 4.3087e-05
10 *441:A 8.37324e-05
11 *530:X 2.87519e-05
12 *176:87 0.00027906
13 *176:83 0.000121981
14 *176:79 0.000297784
15 *176:75 0.000347267
16 *176:53 0.00017789
17 *176:18 0.000367482
18 *176:14 0.000498447
19 *176:10 0.000280014
20 *176:8 0.000191384
21 *441:A *441:B 5.83121e-06
22 *442:B1 *442:C1 1.56428e-05
23 *444:A *444:B 3.90732e-05
24 *445:C *445:B 0
25 *445:C *178:29 7.60965e-05
26 *447:A *447:B 6.10014e-05
27 *487:A1 *437:B 0
28 *487:A1 *177:70 0
29 *487:A1 *177:76 0
30 *176:10 *177:10 5.51574e-05
31 *176:14 *442:A2 5.16418e-05
32 *176:14 *442:C1 2.59981e-05
33 *176:14 *177:10 2.42236e-05
34 *176:14 *177:12 6.47933e-05
35 *176:18 *441:B 0.000299286
36 *176:18 *177:37 0.000114912
37 *176:53 *178:27 4.41506e-05
38 *176:53 *178:29 2.05056e-05
39 *176:75 *457:C 0
40 *176:75 *178:94 0.000163199
41 *176:79 *457:C 0.000162311
42 *176:79 *178:94 0.000108357
43 *176:83 *457:C 0.00012657
44 *443:B2 *176:18 4.35348e-05
45 *454:C_N *176:10 0.000109016
46 *454:C_N *176:14 0.000241169
47 *456:A *176:75 4.66108e-05
48 *487:A3 *487:A1 5.53249e-06
49 *487:B2 *444:A 0.00016886
50 *487:B2 *487:A1 0.000178255
51 *488:B1 *487:A1 0
52 *542:A *176:8 0.000118527
53 *542:A *176:10 4.24562e-05
54 *92:16 *176:14 5.11148e-06
55 *96:12 *444:A 2.30292e-05
56 *97:8 *447:A 0.000116158
57 *105:12 *176:18 0.00023468
58 *106:6 *176:83 8.65961e-05
59 *106:14 *176:83 1.62913e-05
60 *106:14 *176:87 8.59955e-05
61 *106:79 *444:A 3.39064e-05
62 *161:10 *442:B1 1.48096e-05
63 *163:12 *176:8 0.000109995
64 *163:12 *176:10 2.92496e-05
*RES
1 *530:X *176:8 4.98 
2 *176:8 *176:10 1.635 
3 *176:10 *176:14 5.42 
4 *176:14 *176:18 5.985 
5 *176:18 *441:A 2.755 
6 *176:18 *447:A 6.98 
7 *176:14 *442:B1 3.1 
8 *176:10 *176:53 3.5 
9 *176:53 *445:C 3.1 
10 *176:53 *440:A 1.96 
11 *176:8 *176:75 4.535 
12 *176:75 *176:79 4.26 
13 *176:79 *176:83 1.845 
14 *176:83 *176:87 3.14 
15 *176:87 *444:A 6.405 
16 *176:87 *487:A1 6 
17 *176:83 *457:A 1.6 
18 *176:79 *455:C 1.6 
19 *176:75 *438:A 1.6 
*END

*D_NET *177 0.00637659
*CONN
*I *437:A I *D sky130_fd_sc_hd__nand2_1
*I *455:B I *D sky130_fd_sc_hd__and3b_1
*I *457:B I *D sky130_fd_sc_hd__or3_2
*I *445:A_N I *D sky130_fd_sc_hd__nand3b_4
*I *444:C_N I *D sky130_fd_sc_hd__or3b_4
*I *447:B I *D sky130_fd_sc_hd__and3_2
*I *440:B I *D sky130_fd_sc_hd__nor3b_2
*I *454:A I *D sky130_fd_sc_hd__or3b_2
*I *441:B I *D sky130_fd_sc_hd__or3b_2
*I *442:C1 I *D sky130_fd_sc_hd__a221oi_1
*I *531:X O *D sky130_fd_sc_hd__clkbuf_2
*CAP
1 *437:A 2.95338e-05
2 *455:B 0
3 *457:B 8.32457e-05
4 *445:A_N 0
5 *444:C_N 3.9347e-05
6 *447:B 0.000197853
7 *440:B 0
8 *454:A 0
9 *441:B 0.00022249
10 *442:C1 0.000125338
11 *531:X 7.37902e-05
12 *177:103 0.000119319
13 *177:76 0.000444734
14 *177:70 0.000308288
15 *177:66 0.00037357
16 *177:37 0.000397289
17 *177:12 0.000355681
18 *177:10 0.000145294
19 *177:6 0.000442896
20 *444:C_N *178:33 5.05437e-05
21 *457:B *457:C 5.34747e-05
22 *177:37 *454:B 8.53113e-06
23 *177:70 *437:B 0.000114492
24 *177:76 *437:B 3.09164e-05
25 *177:76 *178:33 4.47209e-05
26 *177:103 *457:C 1.34503e-05
27 *438:B *177:66 0.000159305
28 *438:B *177:76 0
29 *441:A *441:B 5.83121e-06
30 *442:B1 *442:C1 1.56428e-05
31 *443:B2 *441:B 4.82919e-05
32 *443:B2 *177:37 0.000124895
33 *447:A *447:B 6.10014e-05
34 *454:C_N *177:37 7.06865e-05
35 *456:B *177:10 0.000118513
36 *487:A1 *177:70 0
37 *487:A1 *177:76 0
38 *487:A2 *437:A 1.33184e-05
39 *487:A2 *177:66 5.83121e-06
40 *530:A *177:66 4.82863e-05
41 *532:A *177:10 7.21491e-06
42 *542:A *177:10 0.000152503
43 *90:8 *177:37 0
44 *90:8 *177:76 0
45 *92:8 *177:10 3.25831e-05
46 *92:8 *177:12 4.31106e-05
47 *92:16 *442:C1 4.9968e-05
48 *92:16 *177:12 9.04308e-05
49 *97:8 *447:B 0.000112721
50 *106:79 *447:B 0.000161921
51 *106:79 *177:76 0
52 *107:79 *437:A 4.66311e-05
53 *107:79 *177:6 1.74678e-05
54 *107:79 *177:66 0.000374082
55 *161:10 *441:B 4.54919e-05
56 *161:10 *442:C1 8.40269e-05
57 *161:10 *177:10 7.12769e-05
58 *161:10 *177:37 0.00015639
59 *176:10 *177:10 5.51574e-05
60 *176:14 *442:C1 2.59981e-05
61 *176:14 *177:10 2.42236e-05
62 *176:14 *177:12 6.47933e-05
63 *176:18 *441:B 0.000299286
64 *176:18 *177:37 0.000114912
*RES
1 *531:X *177:6 2.395 
2 *177:6 *177:10 5.42 
3 *177:10 *177:12 1.635 
4 *177:12 *442:C1 6.06 
5 *177:12 *177:37 9.495 
6 *177:37 *441:B 6.58 
7 *177:37 *454:A 1.6 
8 *177:10 *440:B 3.6 
9 *177:6 *177:66 6.93 
10 *177:66 *177:70 3.38 
11 *177:70 *177:76 5.45 
12 *177:76 *447:B 10.55 
13 *177:76 *444:C_N 2.395 
14 *177:76 *445:A_N 1.6 
15 *177:70 *177:103 2.45 
16 *177:103 *457:B 2.74 
17 *177:103 *455:B 1.6 
18 *177:66 *437:A 2.38 
*END

*D_NET *178 0.00734932
*CONN
*I *440:C_N I *D sky130_fd_sc_hd__nor3b_2
*I *455:A_N I *D sky130_fd_sc_hd__and3b_1
*I *457:C I *D sky130_fd_sc_hd__or3_2
*I *437:B I *D sky130_fd_sc_hd__nand2_1
*I *454:B I *D sky130_fd_sc_hd__or3b_2
*I *445:B I *D sky130_fd_sc_hd__nand3b_4
*I *441:C_N I *D sky130_fd_sc_hd__or3b_2
*I *447:C I *D sky130_fd_sc_hd__and3_2
*I *444:B I *D sky130_fd_sc_hd__or3b_4
*I *442:B2 I *D sky130_fd_sc_hd__a221oi_1
*I *532:X O *D sky130_fd_sc_hd__buf_2
*CAP
1 *440:C_N 0
2 *455:A_N 0
3 *457:C 9.11136e-05
4 *437:B 0.000139089
5 *454:B 0.000178536
6 *445:B 2.08101e-05
7 *441:C_N 0
8 *447:C 9.92189e-05
9 *444:B 5.41755e-05
10 *442:B2 0.000146655
11 *532:X 0.00018999
12 *178:94 0.000550967
13 *178:73 0.0004993
14 *178:46 0.000169995
15 *178:33 0.000287136
16 *178:29 0.000271223
17 *178:27 0.000274392
18 *178:23 0.000186164
19 *178:8 0.000336645
20 *447:C *184:24 0.000160635
21 *438:B *437:B 0
22 *438:B *178:94 0
23 *444:A *444:B 3.90732e-05
24 *444:C_N *178:33 5.05437e-05
25 *445:C *445:B 0
26 *445:C *178:29 7.60965e-05
27 *454:C_N *454:B 8.13314e-05
28 *454:C_N *178:94 0.000183745
29 *457:B *457:C 5.34747e-05
30 *487:A1 *437:B 0
31 *487:B1 *437:B 0
32 *487:B2 *444:B 1.56406e-05
33 *532:A *178:8 0.00017162
34 *90:8 *454:B 0
35 *90:8 *178:94 0
36 *92:16 *442:B2 2.34345e-05
37 *92:54 *444:B 0.000170564
38 *92:54 *178:27 0.000181249
39 *92:54 *178:29 0.00029023
40 *92:54 *178:33 0.000458924
41 *93:27 *447:C 4.75576e-05
42 *96:12 *444:B 2.36616e-05
43 *96:12 *178:33 2.65814e-06
44 *106:79 *447:C 0.000159957
45 *106:79 *178:46 0.000139231
46 *107:14 *442:B2 1.64907e-05
47 *107:14 *178:8 4.91189e-05
48 *107:79 *178:8 0.000103805
49 *108:14 *447:C 0
50 *108:14 *178:46 0
51 *153:18 *447:C 0.00015896
52 *161:10 *442:B2 0.00014429
53 *161:10 *454:B 8.8266e-05
54 *161:10 *178:8 8.4713e-05
55 *163:12 *178:94 4.14369e-05
56 *176:53 *178:27 4.41506e-05
57 *176:53 *178:29 2.05056e-05
58 *176:75 *457:C 0
59 *176:75 *178:94 0.000163199
60 *176:79 *457:C 0.000162311
61 *176:79 *178:94 0.000108357
62 *176:83 *457:C 0.00012657
63 *177:37 *454:B 8.53113e-06
64 *177:70 *437:B 0.000114492
65 *177:76 *437:B 3.09164e-05
66 *177:76 *178:33 4.47209e-05
67 *177:103 *457:C 1.34503e-05
*RES
1 *532:X *178:8 9.06 
2 *178:8 *442:B2 6.555 
3 *178:8 *178:23 2 
4 *178:23 *178:27 3.225 
5 *178:27 *178:29 2.865 
6 *178:29 *178:33 4.605 
7 *178:33 *444:B 3.445 
8 *178:33 *178:46 3.635 
9 *178:46 *447:C 6.975 
10 *178:46 *441:C_N 3.6 
11 *178:29 *445:B 1.96 
12 *178:27 *178:73 2 
13 *178:73 *454:B 6.33 
14 *178:73 *178:94 8.555 
15 *178:94 *437:B 8.285 
16 *178:94 *457:C 4.735 
17 *178:94 *455:A_N 1.6 
18 *178:23 *440:C_N 1.6 
*END

*D_NET *179 0.00670401
*CONN
*I *484:A I *D sky130_fd_sc_hd__xnor2_2
*I *503:B I *D sky130_fd_sc_hd__and2b_1
*I *482:A I *D sky130_fd_sc_hd__nor2_1
*I *481:A I *D sky130_fd_sc_hd__nand2_1
*I *480:A I *D sky130_fd_sc_hd__and2_1
*I *474:A1 I *D sky130_fd_sc_hd__a22o_1
*I *489:B2 I *D sky130_fd_sc_hd__o2bb2a_1
*I *511:A1 I *D sky130_fd_sc_hd__a211o_1
*I *546:X O *D sky130_fd_sc_hd__buf_2
*CAP
1 *484:A 0.000170114
2 *503:B 0
3 *482:A 4.30641e-05
4 *481:A 1.30122e-05
5 *480:A 0
6 *474:A1 0.00018942
7 *489:B2 0.000143869
8 *511:A1 0.000470057
9 *546:X 0.000116037
10 *179:84 0.00021543
11 *179:64 7.47463e-05
12 *179:57 0.00011359
13 *179:22 0.000934641
14 *179:16 0.000863662
15 *179:10 0.000519863
16 *179:8 0.00023277
17 *511:A1 *407:B2 0
18 *407:A2 *511:A1 4.22604e-05
19 *429:D *179:16 0
20 *448:B1 *179:22 7.09999e-05
21 *480:B *481:A 4.00541e-06
22 *480:B *482:A 4.60584e-05
23 *480:B *179:57 5.30673e-05
24 *480:B *179:64 2.30292e-05
25 *482:B *482:A 3.54536e-05
26 *483:A *179:8 2.4997e-05
27 *483:A *179:10 3.39944e-05
28 *483:A *179:16 3.05373e-05
29 *483:B *482:A 4.92062e-05
30 *483:B *484:A 6.90876e-05
31 *483:B *179:8 0
32 *483:B *179:10 0
33 *483:B *179:84 5.05521e-05
34 *489:A2_N *179:22 2.05571e-05
35 *490:B *179:16 0.000141599
36 *490:C *179:16 0.000227016
37 *490:C *179:22 0.000173126
38 *493:B1 *179:16 0.000258857
39 *493:B1 *179:22 1.22676e-05
40 *493:B1 *179:57 1.34503e-05
41 *495:A1 *179:16 0
42 *503:A_N *484:A 0.000122325
43 *510:B1 *511:A1 0
44 *510:B1 *179:22 0
45 *511:A2 *511:A1 1.87424e-05
46 *511:B1 *511:A1 0.000404788
47 *556:A *179:8 0
48 *91:28 *179:22 8.08429e-05
49 *96:12 *179:16 7.63204e-05
50 *96:65 *489:B2 8.6428e-05
51 *99:35 *474:A1 5.80018e-05
52 *99:53 *179:22 7.10201e-05
53 *99:66 *511:A1 9.50036e-05
54 *99:66 *179:22 6.00081e-05
55 *99:72 *511:A1 2.05641e-05
56 *108:14 *511:A1 0
57 *108:14 *179:22 0
58 *129:6 *179:57 2.75229e-05
59 *132:12 *179:10 7.23602e-05
60 *133:23 *484:A 1.47347e-05
61 *153:18 *179:22 0
62 *156:8 *179:8 0
63 *156:12 *179:10 0
64 *156:12 *179:16 0
65 *156:14 *481:A 5.4155e-06
66 *156:14 *482:A 9.53428e-06
*RES
1 *546:X *179:8 5.49 
2 *179:8 *179:10 1.635 
3 *179:10 *179:16 9.33 
4 *179:16 *179:22 7.035 
5 *179:22 *511:A1 12.39 
6 *179:22 *489:B2 5.43 
7 *179:16 *474:A1 6.12 
8 *179:10 *179:57 3.83 
9 *179:57 *480:A 1.6 
10 *179:57 *179:64 0.45 
11 *179:64 *481:A 1.96 
12 *179:64 *482:A 3.1 
13 *179:8 *179:84 2.795 
14 *179:84 *503:B 1.6 
15 *179:84 *484:A 4.735 
*END

*D_NET *180 0.00656149
*CONN
*I *508:A I *D sky130_fd_sc_hd__nor2_1
*I *489:A1_N I *D sky130_fd_sc_hd__o2bb2a_1
*I *521:A1_N I *D sky130_fd_sc_hd__o2bb2a_1
*I *497:A I *D sky130_fd_sc_hd__nand2_2
*I *496:A I *D sky130_fd_sc_hd__or2_1
*I *436:A I *D sky130_fd_sc_hd__inv_2
*I *526:C I *D sky130_fd_sc_hd__and3b_1
*I *547:X O *D sky130_fd_sc_hd__clkbuf_2
*CAP
1 *508:A 0
2 *489:A1_N 0.000155752
3 *521:A1_N 3.29627e-05
4 *497:A 1.55346e-05
5 *496:A 0
6 *436:A 0
7 *526:C 0.000332191
8 *547:X 4.43494e-05
9 *180:66 0.000886062
10 *180:54 0.00101822
11 *180:39 0.000382476
12 *180:32 0.000156497
13 *180:10 0.000392377
14 *180:6 0.000214966
15 *521:A1_N *181:94 0.000119246
16 *490:C *489:A1_N 2.30292e-05
17 *498:A *180:39 4.66108e-05
18 *506:A1 *180:54 8.65905e-05
19 *506:B1 *180:54 0.000352156
20 *508:B *180:54 3.116e-05
21 *509:A2 *521:A1_N 0.000120927
22 *509:B1 *180:39 0.0001249
23 *509:B1 *180:54 0.000269107
24 *510:B1 *489:A1_N 1.23331e-05
25 *511:C1 *489:A1_N 0.000123917
26 *511:C1 *180:66 1.7635e-05
27 *521:B1 *489:A1_N 1.37864e-05
28 *521:B1 *180:66 7.96104e-06
29 *521:B2 *489:A1_N 0.000116158
30 *523:B *180:66 2.59646e-05
31 *524:A2 *180:54 4.82863e-05
32 *526:A_N *526:C 6.19997e-05
33 *526:B *526:C 4.05674e-06
34 *537:A *526:C 0
35 *547:A *180:10 9.58678e-06
36 *39:35 *180:66 0
37 *90:50 *180:66 1.92979e-05
38 *91:28 *489:A1_N 0.000239813
39 *96:37 *489:A1_N 8.53113e-06
40 *96:48 *489:A1_N 4.66108e-05
41 *96:65 *489:A1_N 0.000289293
42 *105:34 *489:A1_N 2.15594e-05
43 *106:41 *489:A1_N 4.24292e-06
44 *145:8 *180:39 4.82919e-05
45 *145:24 *526:C 0
46 *152:23 *180:54 0.00016569
47 *157:6 *526:C 1.83847e-05
48 *157:12 *526:C 0.000164686
49 *157:12 *180:10 0.000116158
50 *157:23 *497:A 9.53428e-06
51 *157:23 *180:32 3.50581e-05
52 *157:23 *180:39 9.07709e-05
53 *157:23 *180:54 3.6762e-05
*RES
1 *547:X *180:6 2.05 
2 *180:6 *180:10 3.38 
3 *180:10 *526:C 9.465 
4 *180:10 *436:A 3.6 
5 *180:6 *180:32 1.5 
6 *180:32 *496:A 1.6 
7 *180:32 *180:39 1.83 
8 *180:39 *497:A 1.96 
9 *180:39 *180:54 9.12 
10 *180:54 *180:66 4.43527 
11 *180:66 *521:A1_N 4.75125 
12 *180:66 *489:A1_N 8.98875 
13 *180:54 *508:A 1.6 
*END

*D_NET *181 0.00682672
*CONN
*I *509:A1 I *D sky130_fd_sc_hd__a221o_1
*I *522:B2 I *D sky130_fd_sc_hd__o2bb2a_1
*I *407:B2 I *D sky130_fd_sc_hd__a22o_1
*I *401:B I *D sky130_fd_sc_hd__nand2b_1
*I *515:A I *D sky130_fd_sc_hd__or2_1
*I *513:A I *D sky130_fd_sc_hd__nand2_1
*I *514:A I *D sky130_fd_sc_hd__nor2_1
*I *548:X O *D sky130_fd_sc_hd__clkbuf_2
*CAP
1 *509:A1 0
2 *522:B2 0
3 *407:B2 9.45589e-05
4 *401:B 0
5 *515:A 0
6 *513:A 7.28588e-05
7 *514:A 1.58485e-05
8 *548:X 0.00037691
9 *181:94 0.00053411
10 *181:68 0.00104404
11 *181:39 0.000160568
12 *181:37 0.00025769
13 *181:18 0.000214167
14 *181:14 0.00100973
15 *407:B2 *406:A1 5.53249e-06
16 *181:94 *522:A1_N 0.000160711
17 *407:A2 *407:B2 8.00858e-05
18 *430:B *181:68 0
19 *430:B *181:94 4.58725e-05
20 *502:A1 *181:68 0
21 *509:A2 *181:94 0.000299346
22 *509:B1 *181:94 3.09774e-05
23 *511:A1 *407:B2 0
24 *512:A2 *181:68 0
25 *512:A2 *181:94 2.54619e-05
26 *512:A3 *181:68 0
27 *512:B1 *181:68 0.00011456
28 *513:B *513:A 7.45031e-05
29 *513:B *181:39 8.8266e-05
30 *520:A2_N *181:68 0
31 *521:A1_N *181:94 0.000119246
32 *523:C *181:68 1.92979e-05
33 *523:C *181:94 0.000410664
34 *528:A1 *181:18 1.56428e-05
35 *528:A1 *181:37 5.57702e-05
36 *528:B1 *181:68 0.000435634
37 *558:A *181:14 0
38 *41:10 *181:37 0
39 *90:39 *181:68 0.000139238
40 *90:50 *181:68 0.000146277
41 *99:66 *407:B2 2.69174e-05
42 *107:39 *407:B2 4.99619e-05
43 *108:14 *407:B2 5.72916e-05
44 *145:24 *181:68 4.31189e-05
45 *146:57 *181:68 0
46 *158:18 *181:14 7.60917e-05
47 *158:18 *181:37 2.68464e-05
48 *158:20 *181:37 2.10214e-05
49 *158:29 *513:A 0
50 *158:29 *514:A 1.20052e-05
51 *158:29 *181:37 5.7875e-05
52 *158:29 *181:39 0.000149571
53 *171:14 *181:14 5.39961e-05
54 *171:14 *181:68 0.000204456
*RES
1 *548:X *181:14 8.13 
2 *181:14 *181:18 2.45 
3 *181:18 *514:A 1.96 
4 *181:18 *181:37 6.56875 
5 *181:37 *181:39 2.17125 
6 *181:39 *513:A 3.46 
7 *181:39 *515:A 1.6 
8 *181:37 *401:B 1.6 
9 *181:14 *181:68 13.73 
10 *181:68 *181:94 14.53 
11 *181:94 *407:B2 7.94 
12 *181:94 *522:B2 1.6 
13 *181:68 *509:A1 1.6 
*END

*D_NET *182 0.0052908
*CONN
*I *420:B I *D sky130_fd_sc_hd__and2b_1
*I *399:A I *D sky130_fd_sc_hd__nand2_1
*I *529:A I *D sky130_fd_sc_hd__or2_1
*I *426:B2 I *D sky130_fd_sc_hd__a2bb2o_1
*I *406:A1 I *D sky130_fd_sc_hd__o22a_1
*I *522:A1_N I *D sky130_fd_sc_hd__o2bb2a_1
*I *549:X O *D sky130_fd_sc_hd__buf_1
*CAP
1 *420:B 4.05979e-05
2 *399:A 0
3 *529:A 0
4 *426:B2 0
5 *406:A1 0.000104684
6 *522:A1_N 0.000139853
7 *549:X 0.000368011
8 *182:32 0.000338421
9 *182:30 0.000518848
10 *182:20 0.000471732
11 *182:16 0.000142674
12 *182:12 0.000504515
13 *182:30 *407:A1 5.21714e-05
14 *399:B *420:B 5.43591e-06
15 *399:B *182:16 4.81878e-05
16 *406:B1 *182:30 0.000103514
17 *407:B1 *182:30 4.94404e-05
18 *407:B2 *406:A1 5.53249e-06
19 *408:A2 *182:30 0.000134021
20 *408:B1 *182:30 0.000141592
21 *414:B2 *182:30 0.000249928
22 *422:A *182:12 4.92935e-05
23 *422:B *182:12 2.97473e-05
24 *423:C *182:12 6.60261e-06
25 *427:B *182:30 0
26 *431:C *182:12 5.21046e-05
27 *431:C *182:16 2.32506e-05
28 *509:A2 *522:A1_N 1.69122e-05
29 *522:B1 *522:A1_N 2.30292e-05
30 *522:B1 *182:30 4.82863e-05
31 *522:B1 *182:32 0.000265276
32 *529:B *182:16 0.000134429
33 *529:B *182:20 2.84447e-05
34 *529:B *182:30 0
35 *54:10 *182:30 9.69962e-05
36 *55:8 *182:16 2.30292e-05
37 *55:8 *182:20 0.00012657
38 *55:8 *182:30 9.21168e-05
39 *56:16 *182:30 0.00013994
40 *56:42 *182:30 5.13397e-05
41 *72:24 *182:12 2.65814e-06
42 *73:10 *182:12 9.37731e-05
43 *73:10 *182:16 2.66586e-05
44 *97:44 *406:A1 3.25831e-05
45 *99:66 *406:A1 0
46 *105:24 *182:30 2.05056e-05
47 *105:24 *182:32 0.000104162
48 *106:79 *182:30 1.70935e-05
49 *108:14 *406:A1 0.00020613
50 *181:94 *522:A1_N 0.000160711
*RES
1 *549:X *182:12 10.625 
2 *182:12 *182:16 2.535 
3 *182:16 *182:20 1.5 
4 *182:20 *182:30 15.73 
5 *182:30 *182:32 2.52 
6 *182:32 *522:A1_N 4.61125 
7 *182:32 *406:A1 8 
8 *182:30 *426:B2 1.6 
9 *182:20 *529:A 1.6 
10 *182:16 *399:A 1.6 
11 *182:12 *420:B 2.47 
*END

*D_NET *183 0.00425626
*CONN
*I *415:A I *D sky130_fd_sc_hd__or2_1
*I *416:A I *D sky130_fd_sc_hd__nand2_1
*I *426:A1_N I *D sky130_fd_sc_hd__a2bb2o_1
*I *407:A1 I *D sky130_fd_sc_hd__a22o_1
*I *432:B I *D sky130_fd_sc_hd__nand2b_1
*I *550:X O *D sky130_fd_sc_hd__clkbuf_1
*CAP
1 *415:A 8.19265e-05
2 *416:A 1.41956e-05
3 *426:A1_N 0
4 *407:A1 0.000229427
5 *432:B 6.08833e-06
6 *550:X 0.0001554
7 *183:35 0.000530671
8 *183:29 0.000550571
9 *183:12 0.000341193
10 *183:10 0.000337301
11 *407:A2 *407:A1 4.66108e-05
12 *407:B1 *407:A1 0.000155497
13 *415:B *183:12 1.01661e-05
14 *416:B *416:A 1.85674e-05
15 *416:B *183:29 0.00017029
16 *417:A *183:12 0.000254651
17 *424:A *183:35 4.66108e-05
18 *424:B *416:A 0
19 *424:B *183:29 2.32597e-05
20 *424:B *183:35 0.000118294
21 *427:B *407:A1 0
22 *427:B *183:35 0
23 *427:D *407:A1 5.02217e-05
24 *428:A1_N *183:10 4.11112e-05
25 *428:B2 *183:10 7.06865e-05
26 *434:A2 *183:10 0
27 *434:A2 *183:12 0
28 *434:B1 *415:A 3.00381e-05
29 *434:B1 *183:12 9.71067e-05
30 *70:8 *415:A 9.91257e-05
31 *70:12 *183:10 3.09164e-05
32 *70:12 *183:12 0.000108322
33 *90:10 *183:29 0
34 *92:16 *183:12 0.000124532
35 *92:16 *183:29 2.59981e-05
36 *97:8 *183:35 6.45236e-05
37 *97:14 *183:35 0.00013994
38 *106:79 *183:35 0
39 *107:39 *407:A1 0.000171296
40 *160:21 *432:B 1.12643e-05
41 *160:21 *183:29 4.82863e-05
42 *182:30 *407:A1 5.21714e-05
*RES
1 *550:X *183:10 6.03 
2 *183:10 *183:12 4.185 
3 *183:12 *432:B 3.70875 
4 *183:12 *183:29 5.495 
5 *183:29 *183:35 7.52 
6 *183:35 *407:A1 8.445 
7 *183:35 *426:A1_N 3.6 
8 *183:29 *416:A 1.96 
9 *183:10 *415:A 5.535 
*END

*D_NET *184 0.00321065
*CONN
*I *442:A2 I *D sky130_fd_sc_hd__a221oi_1
*I *443:A2 I *D sky130_fd_sc_hd__o22a_1
*I *451:B I *D sky130_fd_sc_hd__nand2b_1
*I *439:B I *D sky130_fd_sc_hd__nand2_1
*I *551:X O *D sky130_fd_sc_hd__clkbuf_1
*CAP
1 *442:A2 0.000105125
2 *443:A2 0
3 *451:B 8.20668e-05
4 *439:B 0
5 *551:X 0.000153402
6 *184:24 0.000293424
7 *184:18 0.000361015
8 *184:12 0.000408184
9 *439:A *451:B 4.66108e-05
10 *442:A1 *442:A2 0.000139245
11 *443:B2 *442:A2 0
12 *447:C *184:24 0.000160635
13 *448:C1 *451:B 6.31146e-05
14 *448:C1 *184:24 0.000575183
15 *533:A *184:12 3.86529e-05
16 *90:10 *442:A2 0
17 *92:16 *442:A2 5.10957e-05
18 *92:16 *184:12 3.86529e-05
19 *153:6 *184:12 2.8185e-05
20 *153:8 *184:12 1.83847e-05
21 *153:8 *184:18 7.30602e-05
22 *153:18 *451:B 0.000120655
23 *153:18 *184:18 4.99619e-05
24 *153:18 *184:24 0.000352355
25 *176:14 *442:A2 5.16418e-05
*RES
1 *551:X *184:12 7.955 
2 *184:12 *184:18 2.55 
3 *184:18 *184:24 7.47 
4 *184:24 *439:B 1.6 
5 *184:24 *451:B 3.91375 
6 *184:18 *443:A2 1.6 
7 *184:12 *442:A2 8.255 
*END
