*SPEF "ieee 1481-1999"
*DESIGN "alu_8bit"
*DATE "16:13:03 Thursday August 20, 2026"
*VENDOR "The OpenROAD Project"
*PROGRAM "OpenROAD"
*VERSION "edf00dff99f6c40d67a30c0e22a8191c5d2ed9d6"
*DESIGN_FLOW "NAME_SCOPE LOCAL" "PIN_CAP NONE"
*DIVIDER /
*DELIMITER :
*BUS_DELIMITER []
*T_UNIT 1 NS
*C_UNIT 1 PF
*R_UNIT 1 OHM
*L_UNIT 1 HENRY

*NAME_MAP
*1 A[0]
*2 A[1]
*3 A[2]
*4 A[3]
*5 A[4]
*6 A[5]
*7 A[6]
*8 A[7]
*9 B[0]
*10 B[1]
*11 B[2]
*12 B[3]
*13 B[4]
*14 B[5]
*15 B[6]
*16 B[7]
*19 carry
*20 opcode[0]
*21 opcode[1]
*22 opcode[2]
*23 result[0]
*24 result[1]
*25 result[2]
*26 result[3]
*27 result[4]
*28 result[5]
*29 result[6]
*30 result[7]
*31 zero
*32 _000_
*33 _001_
*34 _002_
*35 _003_
*36 _004_
*37 _005_
*38 _006_
*39 _007_
*40 _008_
*41 _009_
*42 _010_
*43 _011_
*44 _012_
*45 _013_
*46 _014_
*47 _015_
*48 _016_
*49 _017_
*50 _018_
*51 _019_
*52 _020_
*53 _021_
*54 _022_
*55 _023_
*56 _024_
*57 _025_
*58 _026_
*59 _027_
*60 _028_
*61 _029_
*62 _030_
*63 _031_
*64 _032_
*65 _033_
*66 _034_
*67 _035_
*68 _036_
*69 _037_
*70 _038_
*71 _039_
*72 _040_
*73 _041_
*74 _042_
*75 _043_
*76 _044_
*77 _045_
*78 _046_
*79 _047_
*80 _048_
*81 _049_
*82 _050_
*83 _051_
*84 _052_
*85 _053_
*86 _054_
*87 _055_
*88 _056_
*89 _057_
*90 _058_
*91 _059_
*92 _060_
*93 _061_
*94 _062_
*95 _063_
*96 _064_
*97 _065_
*98 _066_
*99 _067_
*100 _068_
*101 _069_
*102 _070_
*103 _071_
*104 _072_
*105 _073_
*106 _074_
*107 _075_
*108 _076_
*109 _077_
*110 _078_
*111 _079_
*112 _080_
*113 _081_
*114 _082_
*115 _083_
*116 _084_
*117 _085_
*118 _086_
*119 _087_
*120 _088_
*121 _089_
*122 _090_
*123 _091_
*124 _092_
*125 _093_
*126 _094_
*127 _095_
*128 _096_
*129 _097_
*130 _098_
*131 _099_
*132 _100_
*133 _101_
*134 _102_
*135 _103_
*136 _104_
*137 _105_
*138 _106_
*139 _107_
*140 _108_
*141 _109_
*142 _110_
*143 _111_
*144 _112_
*145 _113_
*146 _114_
*147 _115_
*148 _116_
*149 _117_
*150 _118_
*151 _119_
*152 _120_
*153 net1
*154 net10
*155 net11
*156 net12
*157 net13
*158 net14
*159 net15
*160 net16
*161 net17
*162 net18
*163 net19
*164 net2
*165 net20
*166 net21
*167 net22
*168 net23
*169 net24
*170 net25
*171 net26
*172 net27
*173 net28
*174 net29
*175 net3
*176 net30
*177 net31
*178 net32
*179 net4
*180 net5
*181 net6
*182 net7
*183 net8
*184 net9
*185 FILLER_0_102
*186 FILLER_0_15
*187 FILLER_0_27
*188 FILLER_0_29
*189 FILLER_0_3
*190 FILLER_0_34
*191 FILLER_0_42
*192 FILLER_0_57
*193 FILLER_0_71
*194 FILLER_0_83
*195 FILLER_0_85
*196 FILLER_0_90
*197 FILLER_10_102
*198 FILLER_10_22
*199 FILLER_10_29
*200 FILLER_10_3
*201 FILLER_10_33
*202 FILLER_10_40
*203 FILLER_10_57
*204 FILLER_10_69
*205 FILLER_10_80
*206 FILLER_11_102
*207 FILLER_11_11
*208 FILLER_11_20
*209 FILLER_11_32
*210 FILLER_11_40
*211 FILLER_11_49
*212 FILLER_11_55
*213 FILLER_11_57
*214 FILLER_11_65
*215 FILLER_12_27
*216 FILLER_12_29
*217 FILLER_12_3
*218 FILLER_12_46
*219 FILLER_12_54
*220 FILLER_12_65
*221 FILLER_12_69
*222 FILLER_12_83
*223 FILLER_13_101
*224 FILLER_13_15
*225 FILLER_13_21
*226 FILLER_13_27
*227 FILLER_13_3
*228 FILLER_13_45
*229 FILLER_13_53
*230 FILLER_13_57
*231 FILLER_13_62
*232 FILLER_13_68
*233 FILLER_13_77
*234 FILLER_13_81
*235 FILLER_14_15
*236 FILLER_14_3
*237 FILLER_14_47
*238 FILLER_14_59
*239 FILLER_14_73
*240 FILLER_14_81
*241 FILLER_14_85
*242 FILLER_15_100
*243 FILLER_15_15
*244 FILLER_15_27
*245 FILLER_15_3
*246 FILLER_15_44
*247 FILLER_15_54
*248 FILLER_15_57
*249 FILLER_15_80
*250 FILLER_15_92
*251 FILLER_16_15
*252 FILLER_16_27
*253 FILLER_16_29
*254 FILLER_16_3
*255 FILLER_16_37
*256 FILLER_16_49
*257 FILLER_16_57
*258 FILLER_16_63
*259 FILLER_16_76
*260 FILLER_16_85
*261 FILLER_16_97
*262 FILLER_1_100
*263 FILLER_1_15
*264 FILLER_1_3
*265 FILLER_1_39
*266 FILLER_1_51
*267 FILLER_1_55
*268 FILLER_1_62
*269 FILLER_1_73
*270 FILLER_1_77
*271 FILLER_1_92
*272 FILLER_2_15
*273 FILLER_2_27
*274 FILLER_2_29
*275 FILLER_2_3
*276 FILLER_2_57
*277 FILLER_2_63
*278 FILLER_2_82
*279 FILLER_2_85
*280 FILLER_2_99
*281 FILLER_3_102
*282 FILLER_3_15
*283 FILLER_3_25
*284 FILLER_3_3
*285 FILLER_3_37
*286 FILLER_3_50
*287 FILLER_3_57
*288 FILLER_3_65
*289 FILLER_3_75
*290 FILLER_3_83
*291 FILLER_4_10
*292 FILLER_4_27
*293 FILLER_4_34
*294 FILLER_4_47
*295 FILLER_4_59
*296 FILLER_4_6
*297 FILLER_4_81
*298 FILLER_4_85
*299 FILLER_4_93
*300 FILLER_5_102
*301 FILLER_5_28
*302 FILLER_5_3
*303 FILLER_5_45
*304 FILLER_5_53
*305 FILLER_5_57
*306 FILLER_5_65
*307 FILLER_5_74
*308 FILLER_5_82
*309 FILLER_6_101
*310 FILLER_6_17
*311 FILLER_6_25
*312 FILLER_6_29
*313 FILLER_6_56
*314 FILLER_6_68
*315 FILLER_6_82
*316 FILLER_7_19
*317 FILLER_7_31
*318 FILLER_7_43
*319 FILLER_7_50
*320 FILLER_7_57
*321 FILLER_7_7
*322 FILLER_7_75
*323 FILLER_7_79
*324 FILLER_7_83
*325 FILLER_7_98
*326 FILLER_8_23
*327 FILLER_8_27
*328 FILLER_8_43
*329 FILLER_8_55
*330 FILLER_8_64
*331 FILLER_8_76
*332 FILLER_8_85
*333 FILLER_9_20
*334 FILLER_9_53
*335 FILLER_9_72
*336 FILLER_9_80
*337 PHY_EDGE_ROW_0_Left_17
*338 PHY_EDGE_ROW_0_Right_0
*339 PHY_EDGE_ROW_10_Left_27
*340 PHY_EDGE_ROW_10_Right_10
*341 PHY_EDGE_ROW_11_Left_28
*342 PHY_EDGE_ROW_11_Right_11
*343 PHY_EDGE_ROW_12_Left_29
*344 PHY_EDGE_ROW_12_Right_12
*345 PHY_EDGE_ROW_13_Left_30
*346 PHY_EDGE_ROW_13_Right_13
*347 PHY_EDGE_ROW_14_Left_31
*348 PHY_EDGE_ROW_14_Right_14
*349 PHY_EDGE_ROW_15_Left_32
*350 PHY_EDGE_ROW_15_Right_15
*351 PHY_EDGE_ROW_16_Left_33
*352 PHY_EDGE_ROW_16_Right_16
*353 PHY_EDGE_ROW_1_Left_18
*354 PHY_EDGE_ROW_1_Right_1
*355 PHY_EDGE_ROW_2_Left_19
*356 PHY_EDGE_ROW_2_Right_2
*357 PHY_EDGE_ROW_3_Left_20
*358 PHY_EDGE_ROW_3_Right_3
*359 PHY_EDGE_ROW_4_Left_21
*360 PHY_EDGE_ROW_4_Right_4
*361 PHY_EDGE_ROW_5_Left_22
*362 PHY_EDGE_ROW_5_Right_5
*363 PHY_EDGE_ROW_6_Left_23
*364 PHY_EDGE_ROW_6_Right_6
*365 PHY_EDGE_ROW_7_Left_24
*366 PHY_EDGE_ROW_7_Right_7
*367 PHY_EDGE_ROW_8_Left_25
*368 PHY_EDGE_ROW_8_Right_8
*369 PHY_EDGE_ROW_9_Left_26
*370 PHY_EDGE_ROW_9_Right_9
*371 TAP_TAPCELL_ROW_0_34
*372 TAP_TAPCELL_ROW_0_35
*373 TAP_TAPCELL_ROW_0_36
*374 TAP_TAPCELL_ROW_10_50
*375 TAP_TAPCELL_ROW_10_51
*376 TAP_TAPCELL_ROW_11_52
*377 TAP_TAPCELL_ROW_12_53
*378 TAP_TAPCELL_ROW_12_54
*379 TAP_TAPCELL_ROW_13_55
*380 TAP_TAPCELL_ROW_14_56
*381 TAP_TAPCELL_ROW_14_57
*382 TAP_TAPCELL_ROW_15_58
*383 TAP_TAPCELL_ROW_16_59
*384 TAP_TAPCELL_ROW_16_60
*385 TAP_TAPCELL_ROW_16_61
*386 TAP_TAPCELL_ROW_1_37
*387 TAP_TAPCELL_ROW_2_38
*388 TAP_TAPCELL_ROW_2_39
*389 TAP_TAPCELL_ROW_3_40
*390 TAP_TAPCELL_ROW_4_41
*391 TAP_TAPCELL_ROW_4_42
*392 TAP_TAPCELL_ROW_5_43
*393 TAP_TAPCELL_ROW_6_44
*394 TAP_TAPCELL_ROW_6_45
*395 TAP_TAPCELL_ROW_7_46
*396 TAP_TAPCELL_ROW_8_47
*397 TAP_TAPCELL_ROW_8_48
*398 TAP_TAPCELL_ROW_9_49
*399 _121_
*400 _122_
*401 _123_
*402 _124_
*403 _125_
*404 _126_
*405 _127_
*406 _128_
*407 _129_
*408 _130_
*409 _131_
*410 _132_
*411 _133_
*412 _134_
*413 _135_
*414 _136_
*415 _137_
*416 _138_
*417 _139_
*418 _140_
*419 _141_
*420 _142_
*421 _143_
*422 _144_
*423 _145_
*424 _146_
*425 _147_
*426 _148_
*427 _149_
*428 _150_
*429 _151_
*430 _152_
*431 _153_
*432 _154_
*433 _155_
*434 _156_
*435 _157_
*436 _158_
*437 _159_
*438 _160_
*439 _161_
*440 _162_
*441 _163_
*442 _164_
*443 _165_
*444 _166_
*445 _167_
*446 _168_
*447 _169_
*448 _170_
*449 _171_
*450 _172_
*451 _173_
*452 _174_
*453 _175_
*454 _176_
*455 _177_
*456 _178_
*457 _179_
*458 _180_
*459 _181_
*460 _182_
*461 _183_
*462 _184_
*463 _185_
*464 _186_
*465 _187_
*466 _188_
*467 _189_
*468 _190_
*469 _191_
*470 _192_
*471 _193_
*472 _194_
*473 _195_
*474 _196_
*475 _197_
*476 _198_
*477 _199_
*478 _200_
*479 _201_
*480 _202_
*481 _203_
*482 _204_
*483 _205_
*484 _206_
*485 _207_
*486 _208_
*487 _209_
*488 _210_
*489 _211_
*490 _212_
*491 _213_
*492 _214_
*493 _215_
*494 _216_
*495 _217_
*496 _218_
*497 _219_
*498 _220_
*499 _221_
*500 _222_
*501 _223_
*502 _224_
*503 _225_
*504 _226_
*505 _227_
*506 _228_
*507 _229_
*508 _230_
*509 _231_
*510 _232_
*511 _233_
*512 _234_
*513 _235_
*514 _236_
*515 _237_
*516 _238_
*517 _239_
*518 _240_
*519 _241_
*520 _242_
*521 _243_
*522 _244_
*523 _245_
*524 _246_
*525 _247_
*526 _248_
*527 _249_
*528 _250_
*529 _251_
*530 fanout30
*531 fanout31
*532 fanout32
*533 input1
*534 input10
*535 input11
*536 input12
*537 input13
*538 input14
*539 input15
*540 input16
*541 input17
*542 input18
*543 input19
*544 input2
*545 input3
*546 input4
*547 input5
*548 input6
*549 input7
*550 input8
*551 input9
*552 output20
*553 output21
*554 output22
*555 output23
*556 output24
*557 output25
*558 output26
*559 output27
*560 output28
*561 output29

*PORTS
A[0] I
A[1] I
A[2] I
A[3] I
A[4] I
A[5] I
A[6] I
A[7] I
B[0] I
B[1] I
B[2] I
B[3] I
B[4] I
B[5] I
B[6] I
B[7] I
carry O
opcode[0] I
opcode[1] I
opcode[2] I
result[0] O
result[1] O
result[2] O
result[3] O
result[4] O
result[5] O
result[6] O
result[7] O
zero O

*D_NET *1 0.000847551
*CONN
*P A[0] I
*I *533:A I *D sky130_fd_sc_hd__dlymetal6s2s_1
*CAP
1 A[0] 0.000239777
2 *533:A 0.000239777
3 *533:A carry 7.77421e-05
4 *533:A *9:13 0.000249401
5 *533:A *92:16 0
6 *533:A *184:8 4.08537e-05
*RES
1 A[0] *533:A 49.1918 
*END

*D_NET *2 0.000670042
*CONN
*P A[1] I
*I *544:A I *D sky130_fd_sc_hd__clkbuf_2
*CAP
1 A[1] 0.000310442
2 *544:A 0
3 *2:17 0.000310442
4 *2:17 *534:A 2.79122e-05
5 *2:17 *547:A 2.12457e-05
*RES
1 A[1] *2:17 27.2827 
2 *2:17 *544:A 23 
*END

*D_NET *3 0.00127719
*CONN
*P A[2] I
*I *545:A I *D sky130_fd_sc_hd__clkbuf_2
*CAP
1 A[2] 0.000587714
2 *545:A 0
3 *3:9 0.000587714
4 *3:9 result[3] 0
5 *3:9 *435:A 0.000101762
*RES
1 A[2] *3:9 27.9671 
2 *3:9 *545:A 23 
*END

*D_NET *4 0.00117358
*CONN
*P A[3] I
*I *546:A I *D sky130_fd_sc_hd__buf_2
*CAP
1 A[3] 0.000586788
2 *546:A 0
3 *4:9 0.000586788
4 *4:9 result[3] 0
5 *4:9 *556:A 0
6 *4:9 *12:9 0
*RES
1 A[3] *4:9 27.4907 
2 *4:9 *546:A 23 
*END

*D_NET *5 0.000574799
*CONN
*P A[4] I
*I *547:A I *D sky130_fd_sc_hd__clkbuf_2
*CAP
1 A[4] 0.000256618
2 *547:A 0.000256618
3 *547:A *534:A 0
4 *547:A *13:17 2.12457e-05
5 *547:A *157:12 9.20726e-06
6 *547:A *180:10 9.86551e-06
7 *2:17 *547:A 2.12457e-05
*RES
1 A[4] *547:A 47.5169 
*END

*D_NET *6 0.00092657
*CONN
*P A[5] I
*I *548:A I *D sky130_fd_sc_hd__clkbuf_2
*CAP
1 A[5] 0.000456314
2 *548:A 0.000456314
3 *548:A result[5] 0
4 *548:A *538:A 0
5 *548:A *158:14 1.39431e-05
*RES
1 A[5] *548:A 47.4457 
*END

*D_NET *7 0.00044177
*CONN
*P A[6] I
*I *549:A I *D sky130_fd_sc_hd__buf_1
*CAP
1 A[6] 0.000180578
2 *549:A 0.000180578
3 *549:A result[7] 8.06147e-05
4 *549:A *421:A2 0
5 *549:A *75:10 0
*RES
1 A[6] *549:A 47.0789 
*END

*D_NET *8 0.000883592
*CONN
*P A[7] I
*I *550:A I *D sky130_fd_sc_hd__clkbuf_1
*CAP
1 A[7] 0.000302473
2 *550:A 0.000302473
3 *550:A result[7] 8.73764e-05
4 *550:A *16:11 0.000102271
5 *550:A *76:21 5.31929e-05
6 *550:A *82:10 3.58055e-05
*RES
1 A[7] *550:A 48.4788 
*END

*D_NET *9 0.00121624
*CONN
*P B[0] I
*I *551:A I *D sky130_fd_sc_hd__clkbuf_1
*CAP
1 B[0] 0.000292885
2 *551:A 0
3 *9:13 0.000292885
4 *9:13 *16:11 0
5 *9:13 *20:11 6.62302e-05
6 *9:13 *92:16 0
7 *9:13 *107:14 0.000314842
8 *533:A *9:13 0.000249401
*RES
1 B[0] *9:13 28.4881 
2 *9:13 *551:A 23 
*END

*D_NET *10 0.000711349
*CONN
*P B[1] I
*I *534:A I *D sky130_fd_sc_hd__dlymetal6s2s_1
*CAP
1 B[1] 0.000300492
2 *534:A 0.000300492
3 *534:A result[0] 7.82365e-05
4 *534:A *470:B 0
5 *534:A *154:10 4.21594e-06
6 *547:A *534:A 0
7 *2:17 *534:A 2.79122e-05
*RES
1 B[1] *534:A 49.1918 
*END

*D_NET *11 0.0011706
*CONN
*P B[2] I
*I *535:A I *D sky130_fd_sc_hd__buf_1
*CAP
1 B[2] 0.000585301
2 *535:A 0
3 *11:9 0.000585301
*RES
1 B[2] *11:9 27.4907 
2 *11:9 *535:A 23 
*END

*D_NET *12 0.00113206
*CONN
*P B[3] I
*I *536:A I *D sky130_fd_sc_hd__dlymetal6s2s_1
*CAP
1 B[3] 0.000566028
2 *536:A 0
3 *12:9 0.000566028
4 *4:9 *12:9 0
*RES
1 B[3] *12:9 27.1386 
2 *12:9 *536:A 23 
*END

*D_NET *13 0.000662459
*CONN
*P B[4] I
*I *537:A I *D sky130_fd_sc_hd__buf_1
*CAP
1 B[4] 0.000320607
2 *537:A 0
3 *13:17 0.000320607
4 *13:17 *526:C 0
5 *547:A *13:17 2.12457e-05
*RES
1 B[4] *13:17 27.1584 
2 *13:17 *537:A 23 
*END

*D_NET *14 0.000901682
*CONN
*P B[5] I
*I *538:A I *D sky130_fd_sc_hd__buf_1
*CAP
1 B[5] 0.000450841
2 *538:A 0.000450841
3 *548:A *538:A 0
*RES
1 B[5] *538:A 47.3214 
*END

*D_NET *15 0.00100747
*CONN
*P B[6] I
*I *539:A I *D sky130_fd_sc_hd__clkbuf_1
*CAP
1 B[6] 0.000493995
2 *539:A 0.000493995
3 *539:A *159:10 1.94812e-05
*RES
1 B[6] *539:A 48.2743 
*END

*D_NET *16 0.001742
*CONN
*P B[7] I
*I *540:A I *D sky130_fd_sc_hd__clkbuf_1
*CAP
1 B[7] 0.000495248
2 *540:A 0
3 *16:11 0.000495248
4 *16:11 carry 7.86092e-05
5 *16:11 *415:B 6.99351e-05
6 *16:11 *76:21 4.45839e-05
7 *16:11 *85:10 0.000194318
8 *16:11 *92:16 3.64851e-05
9 *16:11 *107:14 0
10 *16:11 *160:8 5.56306e-05
11 *16:11 *165:8 0.000169674
12 *550:A *16:11 0.000102271
13 *9:13 *16:11 0
*RES
1 B[7] *16:11 30.6751 
2 *16:11 *540:A 23 
*END

*D_NET *19 0.000562845
*CONN
*P carry O
*I *552:X O *D sky130_fd_sc_hd__buf_2
*CAP
1 carry 0.000187523
2 *552:X 0.000187523
3 carry *107:14 6.10551e-06
4 carry *165:8 2.5343e-05
5 *533:A carry 7.77421e-05
6 *16:11 carry 7.86092e-05
*RES
1 *552:X carry 47.1648 
*END

*D_NET *20 0.00217355
*CONN
*P opcode[0] I
*I *541:A I *D sky130_fd_sc_hd__buf_1
*CAP
1 opcode[0] 0.00097519
2 *541:A 0
3 *20:11 0.00097519
4 *20:11 *543:A 0
5 *20:11 *21:11 0.000110658
6 *20:11 *90:8 4.62821e-05
7 *20:11 *97:8 0
8 *9:13 *20:11 6.62302e-05
*RES
1 opcode[0] *20:11 27.2994 
2 *20:11 *541:A 23 
*END

*D_NET *21 0.001941
*CONN
*P opcode[1] I
*I *542:A I *D sky130_fd_sc_hd__buf_1
*CAP
1 opcode[1] 0.000495248
2 *542:A 0
3 *21:11 0.000495248
4 *21:11 *456:B 3.85353e-05
5 *21:11 *532:A 2.04774e-05
6 *21:11 *543:A 0.000301585
7 *21:11 *162:8 5.9379e-05
8 *21:11 *163:10 5.62433e-06
9 *21:11 *163:12 3.82852e-05
10 *21:11 *176:8 0.000141888
11 *21:11 *176:10 5.09072e-05
12 *21:11 *177:10 0.000183171
13 *20:11 *21:11 0.000110658
*RES
1 opcode[1] *21:11 30.2284 
2 *21:11 *542:A 23 
*END

*D_NET *22 0.00138658
*CONN
*P opcode[2] I
*I *543:A I *D sky130_fd_sc_hd__buf_1
*CAP
1 opcode[2] 0.000480411
2 *543:A 0.000480411
3 *543:A *163:10 0.000124169
4 *20:11 *543:A 0
5 *21:11 *543:A 0.000301585
*RES
1 opcode[2] *543:A 49.7929 
*END

*D_NET *23 0.0015102
*CONN
*P result[0] O
*I *553:X O *D sky130_fd_sc_hd__buf_2
*CAP
1 result[0] 0.000583698
2 *553:X 0.000583698
3 result[0] result[1] 0.000120532
4 result[0] *118:14 7.20154e-05
5 result[0] *152:12 7.20154e-05
6 *534:A result[0] 7.82365e-05
*RES
1 *553:X result[0] 49.1571 
*END

*D_NET *24 0.00080576
*CONN
*P result[1] O
*I *554:X O *D sky130_fd_sc_hd__buf_2
*CAP
1 result[1] 0.000317019
2 *554:X 0.000317019
3 result[1] result[2] 5.11907e-05
4 result[1] *121:8 0
5 result[0] result[1] 0.000120532
*RES
1 *554:X result[1] 47.8604 
*END

*D_NET *25 0.000812382
*CONN
*P result[2] O
*I *555:X O *D sky130_fd_sc_hd__buf_2
*CAP
1 result[2] 0.000114258
2 *555:X 0.000266337
3 *25:12 0.000380595
4 *25:12 *168:14 0
5 result[1] result[2] 5.11907e-05
*RES
1 *555:X *25:12 49.7804 
2 *25:12 result[2] 0.500267 
*END

*D_NET *26 0.00125226
*CONN
*P result[3] O
*I *556:X O *D sky130_fd_sc_hd__buf_2
*CAP
1 result[3] 0.00049783
2 *556:X 0.000128299
3 *26:8 0.000626129
4 *3:9 result[3] 0
5 *4:9 result[3] 0
*RES
1 *556:X *26:8 39.5743 
2 *26:8 result[3] 10.8129 
*END

*D_NET *27 0.000869321
*CONN
*P result[4] O
*I *557:X O *D sky130_fd_sc_hd__buf_2
*CAP
1 result[4] 0.000419973
2 *557:X 0.000419973
3 result[4] result[5] 0
4 result[4] result[6] 0
5 result[4] *557:A 2.93747e-05
*RES
1 *557:X result[4] 46.6171 
*END

*D_NET *28 0.000798495
*CONN
*P result[5] O
*I *558:X O *D sky130_fd_sc_hd__buf_2
*CAP
1 result[5] 0.000399248
2 *558:X 0.000399248
3 result[4] result[5] 0
4 *548:A result[5] 0
*RES
1 *558:X result[5] 46.7621 
*END

*D_NET *29 0.00116189
*CONN
*P result[6] O
*I *559:X O *D sky130_fd_sc_hd__buf_2
*CAP
1 result[6] 0.000564799
2 *559:X 0.000564799
3 result[6] zero 0
4 result[6] *557:A 3.22879e-05
5 result[4] result[6] 0
*RES
1 *559:X result[6] 48.5229 
*END

*D_NET *30 0.000817879
*CONN
*P result[7] O
*I *560:X O *D sky130_fd_sc_hd__buf_2
*CAP
1 result[7] 0.000203528
2 *560:X 0.000203528
3 result[7] *76:21 0.000130212
4 result[7] *92:28 0.000112619
5 *549:A result[7] 8.06147e-05
6 *550:A result[7] 8.73764e-05
*RES
1 *560:X result[7] 48.5734 
*END

*D_NET *31 0.00108
*CONN
*P zero O
*I *561:X O *D sky130_fd_sc_hd__buf_2
*CAP
1 zero 0.000536915
2 *561:X 0.000536915
3 zero *56:26 6.17437e-06
4 result[6] zero 0
*RES
1 *561:X zero 48.0464 
*END

*D_NET *32 0.00144357
*CONN
*I *507:A I *D sky130_fd_sc_hd__and2_1
*I *525:A I *D sky130_fd_sc_hd__nor2_1
*I *524:B1 I *D sky130_fd_sc_hd__o211a_1
*I *505:Y O *D sky130_fd_sc_hd__nand2_1
*CAP
1 *507:A 1.53309e-05
2 *525:A 0
3 *524:B1 0
4 *505:Y 0.000167807
5 *32:23 0.000201192
6 *32:10 0.000328965
7 *32:6 0.000310911
8 *507:A *146:8 3.6647e-05
9 *32:6 *146:8 7.44161e-06
10 *32:6 *146:25 0.000182826
11 *32:10 *88:8 2.02517e-05
12 *32:10 *146:8 2.13733e-05
13 *32:23 *42:18 0.000115371
14 *32:23 *145:20 0
15 *32:23 *146:8 2.93747e-05
16 *32:23 *157:36 6.07611e-06
*RES
1 *505:Y *32:6 25.5271 
2 *32:6 *32:10 2.42357 
3 *32:10 *524:B1 23 
4 *32:10 *32:23 33.9357 
5 *32:23 *525:A 23 
6 *32:6 *507:A 23.8493 
*END

*D_NET *33 0.00056872
*CONN
*I *507:B I *D sky130_fd_sc_hd__and2_1
*I *506:X O *D sky130_fd_sc_hd__o21a_1
*CAP
1 *507:B 0
2 *506:X 0.000175631
3 *33:10 0.000175631
4 *33:10 *509:B1 9.84851e-05
5 *33:10 *42:18 6.07611e-06
6 *33:10 *146:16 0.000108681
7 *33:10 *146:31 4.21594e-06
8 *33:10 *152:23 0
9 *33:10 *157:36 0
*RES
1 *506:X *33:10 41.0036 
2 *33:10 *507:B 38 
*END

*D_NET *34 0.00209367
*CONN
*I *512:A1 I *D sky130_fd_sc_hd__o31a_1
*I *507:X O *D sky130_fd_sc_hd__and2_1
*CAP
1 *512:A1 0.000263701
2 *507:X 0.000347972
3 *34:10 0.000611673
4 *512:A1 *512:A2 5.79559e-05
5 *512:A1 *512:A3 3.06991e-05
6 *512:A1 *512:B1 5.56356e-05
7 *512:A1 *90:35 4.93812e-05
8 *512:A1 *93:54 0.000183269
9 *34:10 *520:A2_N 0.000141869
10 *34:10 *520:B1 0.000351513
*RES
1 *507:X *34:10 43.8621 
2 *34:10 *512:A1 44.5043 
*END

*D_NET *35 0.000305816
*CONN
*I *509:C1 I *D sky130_fd_sc_hd__a221o_1
*I *508:Y O *D sky130_fd_sc_hd__nor2_1
*CAP
1 *509:C1 6.41388e-05
2 *508:Y 6.41388e-05
3 *509:C1 *509:A2 0
4 *509:C1 *509:B1 9.94331e-05
5 *509:C1 *509:B2 5.05179e-06
6 *509:C1 *97:62 7.30532e-05
*RES
1 *508:Y *509:C1 47.595 
*END

*D_NET *36 0.00125317
*CONN
*I *512:A2 I *D sky130_fd_sc_hd__o31a_1
*I *509:X O *D sky130_fd_sc_hd__a221o_1
*CAP
1 *512:A2 3.64132e-05
2 *509:X 0.000205623
3 *36:16 0.000242036
4 *512:A2 *512:A3 0.000146195
5 *512:A2 *90:35 2.18409e-05
6 *512:A2 *93:54 6.79713e-05
7 *36:16 *38:8 0.000107216
8 *36:16 *47:12 0.000190625
9 *36:16 *48:14 9.85403e-05
10 *36:16 *83:20 5.18101e-05
11 *36:16 *181:68 0
12 *36:16 *181:94 2.69465e-05
13 *512:A1 *512:A2 5.79559e-05
*RES
1 *509:X *36:16 44.2557 
2 *36:16 *512:A2 40.0507 
*END

*D_NET *37 0.00145053
*CONN
*I *511:C1 I *D sky130_fd_sc_hd__a211o_1
*I *510:Y O *D sky130_fd_sc_hd__o22ai_1
*CAP
1 *511:C1 0
2 *510:Y 0.000351956
3 *37:10 0.000351956
4 *37:10 *489:A1_N 0.000147206
5 *37:10 *521:B1 5.47617e-05
6 *37:10 *105:34 0.000381531
7 *37:10 *105:36 7.53384e-06
8 *37:10 *146:93 0.000135037
9 *37:10 *180:66 2.05503e-05
*RES
1 *510:Y *37:10 45.25 
2 *37:10 *511:C1 38 
*END

*D_NET *38 0.000706049
*CONN
*I *512:A3 I *D sky130_fd_sc_hd__o31a_1
*I *511:X O *D sky130_fd_sc_hd__a211o_1
*CAP
1 *512:A3 3.07625e-05
2 *511:X 8.19576e-05
3 *38:8 0.00011272
4 *512:A3 *90:35 0.000188927
5 *38:8 *523:B 7.57281e-06
6 *38:8 *181:68 0
7 *512:A1 *512:A3 3.06991e-05
8 *512:A2 *512:A3 0.000146195
9 *36:16 *38:8 0.000107216
*RES
1 *511:X *38:8 39.5536 
2 *38:8 *512:A3 40.0507 
*END

*D_NET *39 0.00769627
*CONN
*I *516:A I *D sky130_fd_sc_hd__and2_1
*I *521:B1 I *D sky130_fd_sc_hd__o2bb2a_1
*I *411:B1 I *D sky130_fd_sc_hd__o211a_1
*I *517:A I *D sky130_fd_sc_hd__nand2_1
*I *513:Y O *D sky130_fd_sc_hd__nand2_1
*CAP
1 *516:A 1.30577e-05
2 *521:B1 0.000273379
3 *411:B1 0.000486874
4 *517:A 0
5 *513:Y 0.000150639
6 *39:35 0.00188205
7 *39:29 0.00160322
8 *39:12 0.000480709
9 *39:8 0.000162987
10 *411:B1 *411:A2 6.10963e-05
11 *411:B1 *519:A3 0
12 *411:B1 *67:8 0.000182832
13 *411:B1 *83:20 2.7203e-05
14 *411:B1 *107:56 0
15 *411:B1 *108:24 0
16 *411:B1 *145:40 1.41077e-05
17 *411:B1 *146:93 0.000149447
18 *411:B1 *170:10 0.000318429
19 *516:A *520:A2_N 6.07611e-06
20 *516:A *41:21 7.37814e-06
21 *521:B1 *489:A1_N 1.3822e-05
22 *521:B1 *105:34 0
23 *521:B1 *146:93 0.000463131
24 *521:B1 *180:66 7.57281e-06
25 *39:8 *41:8 8.93663e-05
26 *39:8 *57:10 0.000138718
27 *39:12 *43:10 7.93848e-06
28 *39:29 *528:C1 2.18409e-05
29 *39:29 *41:21 0.00064055
30 *39:29 *43:10 2.71435e-05
31 *39:29 *43:51 0.000315575
32 *39:29 *44:10 2.24366e-06
33 *39:35 *47:12 7.09115e-05
34 *39:35 *147:26 2.32089e-05
35 *39:35 *180:66 0
36 *37:10 *521:B1 5.47617e-05
*RES
1 *513:Y *39:8 40.9621 
2 *39:8 *39:12 15.1864 
3 *39:12 *517:A 23 
4 *39:12 *39:29 26.1339 
5 *39:29 *39:35 17.9451 
6 *39:35 *411:B1 48.4711 
7 *39:35 *521:B1 44.3075 
8 *39:29 *516:A 38.3211 
*END

*D_NET *40 0.00322809
*CONN
*I *418:A1 I *D sky130_fd_sc_hd__o31ai_2
*I *412:A I *D sky130_fd_sc_hd__nor2_1
*I *514:Y O *D sky130_fd_sc_hd__nor2_1
*CAP
1 *418:A1 6.08878e-05
2 *412:A 0
3 *514:Y 0.000756603
4 *40:16 0.000153124
5 *40:10 0.000970616
6 *418:A1 *431:C 0.000127821
7 *418:A1 *56:16 4.00259e-06
8 *418:A1 *172:14 9.5877e-05
9 *40:10 *431:A 0.000213862
10 *40:10 *431:C 5.67058e-05
11 *40:10 *44:10 0.000491253
12 *40:10 *171:14 2.32101e-05
13 *40:10 *172:14 8.52481e-05
14 *40:10 *172:22 2.55136e-05
15 *40:16 *557:A 0
16 *40:16 *59:20 0
17 *40:16 *67:18 0
18 *40:16 *68:8 0.000163361
19 *40:16 *84:8 0
20 *40:16 *107:56 0
21 *40:16 *170:10 0
*RES
1 *514:Y *40:10 35.5736 
2 *40:10 *40:16 32.9621 
3 *40:16 *412:A 23 
4 *40:10 *418:A1 25.0714 
*END

*D_NET *41 0.00303234
*CONN
*I *520:A2_N I *D sky130_fd_sc_hd__o2bb2a_1
*I *516:B I *D sky130_fd_sc_hd__and2_1
*I *517:B I *D sky130_fd_sc_hd__nand2_1
*I *515:X O *D sky130_fd_sc_hd__or2_1
*CAP
1 *520:A2_N 0.000467682
2 *516:B 0
3 *517:B 0
4 *515:X 0.000164768
5 *41:21 0.000733097
6 *41:10 0.000265415
7 *41:8 0.000164768
8 *520:A2_N *403:A2 0
9 *520:A2_N *520:B1 9.03964e-06
10 *520:A2_N *49:10 0
11 *520:A2_N *90:50 0
12 *520:A2_N *105:48 9.2645e-05
13 *520:A2_N *152:23 0
14 *520:A2_N *181:68 0
15 *41:8 *181:37 0
16 *41:21 *403:A2 0
17 *41:21 *528:C1 0.000141954
18 *41:21 *43:10 0
19 *41:21 *53:10 0.000107732
20 *516:A *520:A2_N 6.07611e-06
21 *516:A *41:21 7.37814e-06
22 *34:10 *520:A2_N 0.000141869
23 *39:8 *41:8 8.93663e-05
24 *39:29 *41:21 0.00064055
*RES
1 *515:X *41:8 40.61 
2 *41:8 *41:10 15 
3 *41:10 *517:B 23 
4 *41:10 *41:21 23.3064 
5 *41:21 *516:B 38 
6 *41:21 *520:A2_N 45.0221 
*END

*D_NET *42 0.00139752
*CONN
*I *525:B I *D sky130_fd_sc_hd__nor2_1
*I *524:C1 I *D sky130_fd_sc_hd__o211a_1
*I *516:X O *D sky130_fd_sc_hd__and2_1
*CAP
1 *525:B 0
2 *524:C1 0
3 *516:X 0.000230098
4 *42:18 0.000210343
5 *42:10 0.000440441
6 *42:10 *527:C 9.67842e-05
7 *42:10 *527:D 3.22879e-05
8 *42:10 *93:54 0.000133805
9 *42:18 *520:B1 1.12487e-05
10 *42:18 *43:19 3.47879e-05
11 *42:18 *50:10 8.62783e-05
12 *42:18 *146:31 0
13 *32:23 *42:18 0.000115371
14 *33:10 *42:18 6.07611e-06
*RES
1 *516:X *42:10 28.075 
2 *42:10 *42:18 33.9357 
3 *42:18 *524:C1 23 
4 *42:10 *525:B 23 
*END

*D_NET *43 0.00563718
*CONN
*I *518:B1 I *D sky130_fd_sc_hd__a21oi_1
*I *519:A3 I *D sky130_fd_sc_hd__a31o_1
*I *520:B1 I *D sky130_fd_sc_hd__o2bb2a_1
*I *526:B I *D sky130_fd_sc_hd__and3b_1
*I *403:A3 I *D sky130_fd_sc_hd__a311o_1
*I *517:Y O *D sky130_fd_sc_hd__nand2_1
*CAP
1 *518:B1 0
2 *519:A3 1.65907e-05
3 *520:B1 0.000285834
4 *526:B 0.000261244
5 *403:A3 0
6 *517:Y 0
7 *43:68 0.000268524
8 *43:51 0.000744667
9 *43:19 0.000794895
10 *43:10 0.000597435
11 *43:4 0.000809171
12 *519:A3 *528:A1 7.86509e-06
13 *520:B1 *50:10 7.48331e-05
14 *520:B1 *105:48 4.84129e-06
15 *520:B1 *146:25 5.12328e-05
16 *520:B1 *146:31 3.56537e-05
17 *526:B *526:C 4.04598e-06
18 *526:B *527:C 0.000139352
19 *526:B *527:D 9.8971e-06
20 *526:B *52:6 9.85849e-06
21 *43:10 *403:A2 0
22 *43:10 *52:12 0
23 *43:10 *53:10 0
24 *43:10 *57:10 6.48142e-05
25 *43:10 *58:10 8.91468e-07
26 *43:19 *403:A2 0
27 *43:19 *50:10 1.14452e-05
28 *43:19 *52:12 0
29 *43:19 *146:31 7.27735e-05
30 *43:51 *528:A1 5.88742e-05
31 *43:51 *528:A2 1.59071e-05
32 *43:51 *528:B1 3.31444e-05
33 *43:51 *171:10 2.80924e-06
34 *43:68 *411:C1 5.56356e-05
35 *43:68 *500:B 0
36 *43:68 *518:A2 4.34745e-05
37 *43:68 *519:A2 5.57836e-05
38 *43:68 *145:40 0.000110587
39 *43:68 *146:71 1.05441e-05
40 *43:68 *148:6 5.50106e-05
41 *43:68 *148:14 0.000107232
42 *43:68 *171:10 8.06804e-06
43 *43:68 *171:14 5.70007e-05
44 *411:B1 *519:A3 0
45 *520:A2_N *520:B1 9.03964e-06
46 *34:10 *520:B1 0.000351513
47 *39:12 *43:10 7.93848e-06
48 *39:29 *43:10 2.71435e-05
49 *39:29 *43:51 0.000315575
50 *41:21 *43:10 0
51 *42:18 *520:B1 1.12487e-05
52 *42:18 *43:19 3.47879e-05
*RES
1 *517:Y *43:4 23 
2 *43:4 *43:10 20.5929 
3 *43:10 *403:A3 38 
4 *43:10 *43:19 3.66643 
5 *43:19 *526:B 42.6193 
6 *43:19 *520:B1 44.96 
7 *43:4 *43:51 7.31214 
8 *43:51 *519:A3 23.4971 
9 *43:51 *43:68 36.0071 
10 *43:68 *518:B1 23 
*END

*D_NET *44 0.00187605
*CONN
*I *528:A1 I *D sky130_fd_sc_hd__o211ai_1
*I *518:Y O *D sky130_fd_sc_hd__a21oi_1
*CAP
1 *528:A1 3.7137e-05
2 *518:Y 0.00036504
3 *44:10 0.000402177
4 *528:A1 *528:A2 2.93431e-05
5 *44:10 *158:14 2.57088e-05
6 *44:10 *158:18 2.46906e-05
7 *44:10 *158:20 2.93431e-05
8 *44:10 *171:14 0.000321267
9 *44:10 *181:18 1.59094e-05
10 *44:10 *181:37 6.51985e-05
11 *519:A3 *528:A1 7.86509e-06
12 *39:29 *44:10 2.24366e-06
13 *40:10 *44:10 0.000491253
14 *43:51 *528:A1 5.88742e-05
*RES
1 *518:Y *44:10 46.8243 
2 *44:10 *528:A1 39.1186 
*END

*D_NET *45 0.000194863
*CONN
*I *528:A2 I *D sky130_fd_sc_hd__o211ai_1
*I *519:X O *D sky130_fd_sc_hd__a31o_1
*CAP
1 *528:A2 2.36119e-05
2 *519:X 2.36119e-05
3 *528:A2 *528:B1 0.000102389
4 *528:A1 *528:A2 2.93431e-05
5 *43:51 *528:A2 1.59071e-05
*RES
1 *519:X *528:A2 47.0979 
*END

*D_NET *46 0.000515549
*CONN
*I *523:A I *D sky130_fd_sc_hd__and3_1
*I *520:X O *D sky130_fd_sc_hd__o2bb2a_1
*CAP
1 *523:A 0.000201834
2 *520:X 0.000201834
3 *523:A *511:A2 1.05819e-05
4 *523:A *523:C 7.48366e-05
5 *523:A *90:39 2.64616e-05
*RES
1 *520:X *523:A 49.0243 
*END

*D_NET *47 0.00124548
*CONN
*I *523:B I *D sky130_fd_sc_hd__and3_1
*I *521:X O *D sky130_fd_sc_hd__o2bb2a_1
*CAP
1 *523:B 9.96367e-05
2 *521:X 0.000243633
3 *47:12 0.000343269
4 *523:B *523:C 3.42398e-05
5 *47:12 *83:20 0.000231751
6 *47:12 *180:66 2.384e-05
7 *36:16 *47:12 0.000190625
8 *38:8 *523:B 7.57281e-06
9 *39:35 *47:12 7.09115e-05
*RES
1 *521:X *47:12 49.5377 
2 *47:12 *523:B 47.4189 
*END

*D_NET *48 0.00233739
*CONN
*I *523:C I *D sky130_fd_sc_hd__and3_1
*I *522:X O *D sky130_fd_sc_hd__o2bb2a_1
*CAP
1 *523:C 8.21445e-05
2 *522:X 0.000723529
3 *48:14 0.000805674
4 *48:14 *509:A2 3.59821e-05
5 *48:14 *90:50 0
6 *48:14 *181:68 2.33476e-05
7 *48:14 *181:94 0.000459094
8 *523:A *523:C 7.48366e-05
9 *523:B *523:C 3.42398e-05
10 *36:16 *48:14 9.85403e-05
*RES
1 *522:X *48:14 49.6 
2 *48:14 *523:C 40.2786 
*END

*D_NET *49 0.00191135
*CONN
*I *528:B1 I *D sky130_fd_sc_hd__o211ai_1
*I *523:X O *D sky130_fd_sc_hd__and3_1
*CAP
1 *528:B1 8.57352e-05
2 *523:X 0.000433342
3 *49:10 0.000519077
4 *528:B1 *171:10 0.000188927
5 *49:10 *90:39 2.81066e-05
6 *49:10 *181:68 0.000520627
7 *520:A2_N *49:10 0
8 *528:A2 *528:B1 0.000102389
9 *43:51 *528:B1 3.31444e-05
*RES
1 *523:X *49:10 46.2857 
2 *49:10 *528:B1 41.0243 
*END

*D_NET *50 0.00120912
*CONN
*I *527:B I *D sky130_fd_sc_hd__or4_1
*I *524:X O *D sky130_fd_sc_hd__o211a_1
*CAP
1 *527:B 0
2 *524:X 0.000319488
3 *50:10 0.000319488
4 *50:10 *146:8 0.00039759
5 *520:B1 *50:10 7.48331e-05
6 *42:18 *50:10 8.62783e-05
7 *43:19 *50:10 1.14452e-05
*RES
1 *524:X *50:10 43.6343 
2 *50:10 *527:B 38 
*END

*D_NET *51 0.000329642
*CONN
*I *527:C I *D sky130_fd_sc_hd__or4_1
*I *525:Y O *D sky130_fd_sc_hd__nor2_1
*CAP
1 *527:C 3.79255e-05
2 *525:Y 3.79255e-05
3 *527:C *527:D 1.76557e-05
4 *526:B *527:C 0.000139352
5 *42:10 *527:C 9.67842e-05
*RES
1 *525:Y *527:C 47.5743 
*END

*D_NET *52 0.000631136
*CONN
*I *527:D I *D sky130_fd_sc_hd__or4_1
*I *403:B1 I *D sky130_fd_sc_hd__a311o_1
*I *526:X O *D sky130_fd_sc_hd__and3b_1
*CAP
1 *527:D 0.000117943
2 *403:B1 0
3 *526:X 5.01909e-05
4 *52:12 0.00010486
5 *52:6 0.000272994
6 *527:D *93:54 4.00259e-06
7 *52:12 *58:10 1.14452e-05
8 *52:12 *145:20 0
9 *526:B *527:D 9.8971e-06
10 *526:B *52:6 9.85849e-06
11 *527:C *527:D 1.76557e-05
12 *42:10 *527:D 3.22879e-05
13 *43:10 *52:12 0
14 *43:19 *52:12 0
*RES
1 *526:X *52:6 23.6214 
2 *52:6 *52:12 31.9057 
3 *52:12 *403:B1 23 
4 *52:6 *527:D 25.0714 
*END

*D_NET *53 0.00128116
*CONN
*I *528:C1 I *D sky130_fd_sc_hd__o211ai_1
*I *527:X O *D sky130_fd_sc_hd__or4_1
*CAP
1 *528:C1 9.5739e-05
2 *527:X 0.000292897
3 *53:10 0.000388635
4 *53:10 *403:A2 0.000136486
5 *53:10 *93:54 9.58714e-05
6 *39:29 *528:C1 2.18409e-05
7 *41:21 *528:C1 0.000141954
8 *41:21 *53:10 0.000107732
9 *43:10 *53:10 0
*RES
1 *527:X *53:10 43.8207 
2 *53:10 *528:C1 40.0507 
*END

*D_NET *54 0.00125756
*CONN
*I *408:A2 I *D sky130_fd_sc_hd__a21o_1
*I *400:A I *D sky130_fd_sc_hd__nand2_2
*I *529:X O *D sky130_fd_sc_hd__or2_1
*CAP
1 *408:A2 0.000357745
2 *400:A 0
3 *529:X 0.000133649
4 *54:10 0.000491393
5 *408:A2 *63:10 6.07611e-06
6 *408:A2 *72:18 0
7 *408:A2 *90:18 2.32101e-05
8 *408:A2 *90:35 1.24376e-05
9 *408:A2 *173:12 0
10 *408:A2 *182:30 0.000130451
11 *54:10 *173:12 0
12 *54:10 *182:30 0.000102598
*RES
1 *529:X *54:10 40.5271 
2 *54:10 *400:A 38 
3 *54:10 *408:A2 44.4007 
*END

*D_NET *55 0.00494705
*CONN
*I *406:B1 I *D sky130_fd_sc_hd__o22a_1
*I *400:B I *D sky130_fd_sc_hd__nand2_2
*I *418:B1 I *D sky130_fd_sc_hd__o31ai_2
*I *399:Y O *D sky130_fd_sc_hd__nand2_1
*CAP
1 *406:B1 0
2 *400:B 0.000146696
3 *418:B1 1.13421e-05
4 *399:Y 9.73273e-05
5 *55:36 0.000516929
6 *55:19 0.000802628
7 *55:8 0.000247672
8 *400:B *56:6 9.5877e-05
9 *400:B *59:20 2.93845e-05
10 *400:B *61:12 0.000308045
11 *418:B1 *431:C 2.4754e-05
12 *418:B1 *56:16 5.50049e-05
13 *55:8 *431:C 0.000491451
14 *55:8 *56:16 4.95081e-05
15 *55:8 *182:16 2.4754e-05
16 *55:8 *182:20 0.000143655
17 *55:8 *182:30 9.90162e-05
18 *55:19 *56:16 8.16459e-05
19 *55:19 *56:42 1.22803e-05
20 *55:19 *59:20 1.80023e-05
21 *55:19 *66:10 6.07611e-06
22 *55:19 *67:18 0
23 *55:36 *407:B1 0.000110922
24 *55:36 *409:A2 0.000132665
25 *55:36 *410:A1 6.6869e-05
26 *55:36 *424:A 5.50049e-05
27 *55:36 *56:42 0.000209098
28 *55:36 *59:20 1.17152e-05
29 *55:36 *62:10 0.000576507
30 *55:36 *66:10 7.20312e-05
31 *55:36 *93:27 6.43108e-05
32 *55:36 *97:32 2.93747e-05
33 *55:36 *106:79 0.000256776
34 *55:36 *182:30 9.9725e-05
*RES
1 *399:Y *55:8 28.8829 
2 *55:8 *418:B1 23.6214 
3 *55:8 *55:19 17.9621 
4 *55:19 *400:B 41.9771 
5 *55:19 *55:36 29.8521 
6 *55:36 *406:B1 23 
*END

*D_NET *56 0.00358016
*CONN
*I *405:A I *D sky130_fd_sc_hd__and2_1
*I *409:A2 I *D sky130_fd_sc_hd__o211a_1
*I *404:A I *D sky130_fd_sc_hd__nor2_1
*I *418:A2 I *D sky130_fd_sc_hd__o31ai_2
*I *413:A I *D sky130_fd_sc_hd__xor2_1
*I *400:Y O *D sky130_fd_sc_hd__nand2_2
*CAP
1 *405:A 0
2 *409:A2 0.000164645
3 *404:A 0
4 *418:A2 0
5 *413:A 0
6 *400:Y 5.86438e-05
7 *56:42 0.000308739
8 *56:26 0.000281364
9 *56:16 0.000607478
10 *56:8 0.000470209
11 *56:6 5.86438e-05
12 *409:A2 *409:C1 7.8438e-05
13 *409:A2 *64:8 0.00014411
14 *409:A2 *90:35 1.14154e-05
15 *409:A2 *93:54 2.3853e-05
16 *56:16 *431:C 9.86742e-05
17 *56:16 *182:30 0.000167452
18 *56:26 *431:C 2.64616e-05
19 *56:26 *68:8 0
20 *56:26 *69:8 0.000163352
21 *56:26 *172:10 2.76611e-06
22 *56:26 *172:22 0
23 *56:26 *174:10 4.18032e-05
24 *56:42 *64:8 0.000166522
25 *56:42 *182:30 5.93365e-05
26 zero *56:26 6.17437e-06
27 *400:B *56:6 9.5877e-05
28 *418:A1 *56:16 4.00259e-06
29 *418:B1 *56:16 5.50049e-05
30 *55:8 *56:16 4.95081e-05
31 *55:19 *56:16 8.16459e-05
32 *55:19 *56:42 1.22803e-05
33 *55:36 *409:A2 0.000132665
34 *55:36 *56:42 0.000209098
*RES
1 *400:Y *56:6 24.0979 
2 *56:6 *56:8 15 
3 *56:8 *56:16 22.1879 
4 *56:16 *56:26 35.51 
5 *56:26 *413:A 23 
6 *56:16 *418:A2 23 
7 *56:8 *56:42 4.08071 
8 *56:42 *404:A 38 
9 *56:42 *409:A2 42.4743 
10 *56:6 *405:A 23 
*END

*D_NET *57 0.00122177
*CONN
*I *402:A I *D sky130_fd_sc_hd__inv_2
*I *401:Y O *D sky130_fd_sc_hd__nand2b_1
*CAP
1 *402:A 0
2 *401:Y 0.000324591
3 *57:10 0.000324591
4 *57:10 *513:B 0.000312348
5 *57:10 *158:29 5.67058e-05
6 *39:8 *57:10 0.000138718
7 *43:10 *57:10 6.48142e-05
*RES
1 *401:Y *57:10 43.8621 
2 *57:10 *402:A 38 
*END

*D_NET *58 0.000724293
*CONN
*I *403:C1 I *D sky130_fd_sc_hd__a311o_1
*I *402:Y O *D sky130_fd_sc_hd__inv_2
*CAP
1 *403:C1 0
2 *402:Y 0.000355978
3 *58:10 0.000355978
4 *58:10 *145:20 0
5 *43:10 *58:10 8.91468e-07
6 *52:12 *58:10 1.14452e-05
*RES
1 *402:Y *58:10 42.785 
2 *58:10 *403:C1 38 
*END

*D_NET *59 0.00591728
*CONN
*I *404:B I *D sky130_fd_sc_hd__nor2_1
*I *405:B I *D sky130_fd_sc_hd__and2_1
*I *403:X O *D sky130_fd_sc_hd__a311o_1
*CAP
1 *404:B 7.00508e-05
2 *405:B 0
3 *403:X 0.00153667
4 *59:20 0.000311655
5 *59:10 0.00191838
6 *404:B *410:A3 4.79641e-05
7 *59:10 *410:A3 5.41288e-05
8 *59:10 *66:10 1.76557e-05
9 *59:10 *108:24 0.000855154
10 *59:10 *108:32 5.56356e-05
11 *59:10 *145:20 0.000741341
12 *59:10 *146:44 5.61255e-06
13 *59:20 *410:A1 3.70094e-05
14 *59:20 *414:B2 2.3191e-05
15 *59:20 *61:12 1.57571e-05
16 *59:20 *65:10 0
17 *59:20 *66:10 0.000163343
18 *59:20 *67:18 4.6318e-06
19 *59:20 *107:56 0
20 *400:B *59:20 2.93845e-05
21 *40:16 *59:20 0
22 *55:19 *59:20 1.80023e-05
23 *55:36 *59:20 1.17152e-05
*RES
1 *403:X *59:10 46.7593 
2 *59:10 *59:20 36.5664 
3 *59:20 *405:B 23 
4 *59:10 *404:B 24.595 
*END

*D_NET *60 0.000297676
*CONN
*I *410:A2 I *D sky130_fd_sc_hd__o31ai_1
*I *404:Y O *D sky130_fd_sc_hd__nor2_1
*CAP
1 *410:A2 0.000100166
2 *404:Y 0.000100166
3 *410:A2 *410:A3 2.32101e-05
4 *410:A2 *66:10 7.41341e-05
*RES
1 *404:Y *410:A2 47.3361 
*END

*D_NET *61 0.00450229
*CONN
*I *421:A1 I *D sky130_fd_sc_hd__o21ai_1
*I *410:A3 I *D sky130_fd_sc_hd__o31ai_1
*I *422:A I *D sky130_fd_sc_hd__or3_1
*I *405:X O *D sky130_fd_sc_hd__and2_1
*CAP
1 *421:A1 0
2 *410:A3 0.000473708
3 *422:A 9.32177e-05
4 *405:X 0.000628586
5 *61:33 0.000699158
6 *61:12 0.000947253
7 *410:A3 *66:10 0.000139346
8 *422:A *421:A2 2.24973e-05
9 *422:A *422:B 9.67842e-05
10 *422:A *433:A2 2.96051e-05
11 *422:A *73:10 6.07611e-06
12 *422:A *74:8 1.01436e-05
13 *422:A *182:10 5.2894e-05
14 *61:12 *414:B2 0.000136738
15 *61:12 *422:B 0.000139352
16 *61:12 *72:24 5.50106e-05
17 *61:33 *421:A2 0.00020469
18 *61:33 *428:A1_N 1.4649e-05
19 *61:33 *428:B1 0
20 *61:33 *433:A2 5.62433e-05
21 *61:33 *74:8 0.000133316
22 *61:33 *173:12 4.21378e-05
23 *61:33 *173:33 7.17822e-05
24 *400:B *61:12 0.000308045
25 *404:B *410:A3 4.79641e-05
26 *410:A2 *410:A3 2.32101e-05
27 *59:10 *410:A3 5.41288e-05
28 *59:20 *61:12 1.57571e-05
*RES
1 *405:X *61:12 48.3157 
2 *61:12 *422:A 40.4236 
3 *61:12 *61:33 21.0279 
4 *61:33 *410:A3 31.7414 
5 *61:33 *421:A1 23 
*END

*D_NET *62 0.00187864
*CONN
*I *409:B1 I *D sky130_fd_sc_hd__o211a_1
*I *406:X O *D sky130_fd_sc_hd__o22a_1
*CAP
1 *409:B1 0
2 *406:X 0.000316194
3 *62:10 0.000316194
4 *62:10 *93:27 0.000575577
5 *62:10 *97:32 9.41704e-05
6 *55:36 *62:10 0.000576507
*RES
1 *406:X *62:10 46.99 
2 *62:10 *409:B1 38 
*END

*D_NET *63 0.000749289
*CONN
*I *408:B1 I *D sky130_fd_sc_hd__a21o_1
*I *407:X O *D sky130_fd_sc_hd__a22o_1
*CAP
1 *408:B1 0
2 *407:X 0.00023864
3 *63:10 0.00023864
4 *63:10 *90:18 0
5 *63:10 *107:39 9.62666e-05
6 *63:10 *182:30 0.000169665
7 *408:A2 *63:10 6.07611e-06
*RES
1 *407:X *63:10 42.3086 
2 *63:10 *408:B1 38 
*END

*D_NET *64 0.00135428
*CONN
*I *414:B2 I *D sky130_fd_sc_hd__o2bb2a_1
*I *408:X O *D sky130_fd_sc_hd__a21o_1
*CAP
1 *414:B2 0.000193234
2 *408:X 9.90323e-05
3 *64:8 0.000292266
4 *64:8 *182:30 0.000299187
5 *409:A2 *64:8 0.00014411
6 *56:42 *64:8 0.000166522
7 *59:20 *414:B2 2.3191e-05
8 *61:12 *414:B2 0.000136738
*RES
1 *408:X *64:8 42.0186 
2 *64:8 *414:B2 40.5271 
*END

*D_NET *65 0.000451253
*CONN
*I *410:B1 I *D sky130_fd_sc_hd__o31ai_1
*I *409:X O *D sky130_fd_sc_hd__o211a_1
*CAP
1 *410:B1 0
2 *409:X 0.000127642
3 *65:10 0.000127642
4 *65:10 *410:A1 0
5 *65:10 *93:54 5.50106e-05
6 *65:10 *107:56 0.000140958
7 *59:20 *65:10 0
*RES
1 *409:X *65:10 40.5271 
2 *65:10 *410:B1 38 
*END

*D_NET *66 0.00079251
*CONN
*I *414:B1 I *D sky130_fd_sc_hd__o2bb2a_1
*I *410:Y O *D sky130_fd_sc_hd__o31ai_1
*CAP
1 *414:B1 0
2 *410:Y 0.000159962
3 *66:10 0.000159962
4 *410:A2 *66:10 7.41341e-05
5 *410:A3 *66:10 0.000139346
6 *55:19 *66:10 6.07611e-06
7 *55:36 *66:10 7.20312e-05
8 *59:10 *66:10 1.76557e-05
9 *59:20 *66:10 0.000163343
*RES
1 *410:Y *66:10 42.3086 
2 *66:10 *414:B1 38 
*END

*D_NET *67 0.00160561
*CONN
*I *412:B I *D sky130_fd_sc_hd__nor2_1
*I *418:A3 I *D sky130_fd_sc_hd__o31ai_2
*I *411:X O *D sky130_fd_sc_hd__o211a_1
*CAP
1 *412:B 0
2 *418:A3 0
3 *411:X 0.000295627
4 *67:18 0.000288846
5 *67:8 0.000584473
6 *67:8 *83:20 5.50106e-05
7 *67:18 *69:8 6.68793e-05
8 *67:18 *107:56 2.88255e-05
9 *67:18 *172:10 9.84851e-05
10 *411:B1 *67:8 0.000182832
11 *40:16 *67:18 0
12 *55:19 *67:18 0
13 *59:20 *67:18 4.6318e-06
*RES
1 *411:X *67:8 28.8829 
2 *67:8 *67:18 35.7586 
3 *67:18 *418:A3 23 
4 *67:8 *412:B 23 
*END

*D_NET *68 0.000764364
*CONN
*I *413:B I *D sky130_fd_sc_hd__xor2_1
*I *412:Y O *D sky130_fd_sc_hd__nor2_1
*CAP
1 *413:B 0
2 *412:Y 0.000231138
3 *68:8 0.000231138
4 *68:8 *172:10 0.000138727
5 *68:8 *172:22 0
6 *40:16 *68:8 0.000163361
7 *56:26 *68:8 0
*RES
1 *412:Y *68:8 42.7229 
2 *68:8 *413:B 38 
*END

*D_NET *69 0.000714988
*CONN
*I *414:A2_N I *D sky130_fd_sc_hd__o2bb2a_1
*I *413:X O *D sky130_fd_sc_hd__xor2_1
*CAP
1 *414:A2_N 0
2 *413:X 0.000199239
3 *69:8 0.000199239
4 *69:8 *172:10 0
5 *69:8 *174:10 8.62783e-05
6 *56:26 *69:8 0.000163352
7 *67:18 *69:8 6.68793e-05
*RES
1 *413:X *69:8 42.0186 
2 *69:8 *414:A2_N 38 
*END

*D_NET *70 0.00200087
*CONN
*I *433:A1 I *D sky130_fd_sc_hd__a21bo_1
*I *417:A I *D sky130_fd_sc_hd__nand2_1
*I *425:B1 I *D sky130_fd_sc_hd__a2bb2o_1
*I *415:X O *D sky130_fd_sc_hd__or2_1
*CAP
1 *433:A1 0
2 *417:A 0.000187151
3 *425:B1 7.07795e-05
4 *415:X 0.000213524
5 *70:12 0.00034092
6 *70:8 0.000296514
7 *417:A *72:10 3.81554e-05
8 *417:A *90:10 0
9 *417:A *107:22 4.42688e-05
10 *417:A *183:12 0.000305509
11 *425:B1 *92:28 0
12 *425:B1 *107:22 1.94693e-05
13 *70:8 *415:A 0.00010655
14 *70:8 *427:A 0
15 *70:8 *433:A2 2.93747e-05
16 *70:8 *82:10 9.58714e-05
17 *70:12 *428:A1_N 4.6318e-06
18 *70:12 *107:22 8.16356e-05
19 *70:12 *183:10 3.70094e-05
20 *70:12 *183:12 0.000129504
*RES
1 *415:X *70:8 27.4536 
2 *70:8 *70:12 17.2579 
3 *70:12 *425:B1 39.1186 
4 *70:12 *417:A 42.64 
5 *70:8 *433:A1 23 
*END

*D_NET *71 0.00155408
*CONN
*I *417:B I *D sky130_fd_sc_hd__nand2_1
*I *424:B I *D sky130_fd_sc_hd__nor2_1
*I *433:B1_N I *D sky130_fd_sc_hd__a21bo_1
*I *416:Y O *D sky130_fd_sc_hd__nand2_1
*CAP
1 *417:B 3.86428e-05
2 *424:B 0.000164375
3 *433:B1_N 0
4 *416:Y 4.63305e-05
5 *71:19 0.000237221
6 *71:12 0.000119332
7 *71:6 0.000199866
8 *417:B *416:B 4.37033e-05
9 *417:B *432:A_N 4.00259e-06
10 *417:B *72:10 6.17437e-06
11 *424:B *416:A 0
12 *424:B *416:B 7.53384e-06
13 *424:B *79:10 2.93747e-05
14 *424:B *183:29 2.44913e-05
15 *424:B *183:35 0.000126847
16 *71:12 *72:10 0.000164291
17 *71:12 *72:18 0.000141879
18 *71:12 *90:10 0.000111852
19 *71:12 *90:18 2.24151e-05
20 *71:12 *107:22 6.57448e-05
*RES
1 *416:Y *71:6 23.6214 
2 *71:6 *71:12 34.0186 
3 *71:12 *433:B1_N 23 
4 *71:6 *71:19 0.849286 
5 *71:19 *424:B 26.9771 
6 *71:19 *417:B 24.1186 
*END

*D_NET *72 0.00323439
*CONN
*I *425:A2_N I *D sky130_fd_sc_hd__a2bb2o_1
*I *421:B1 I *D sky130_fd_sc_hd__o21ai_1
*I *422:B I *D sky130_fd_sc_hd__or3_1
*I *419:A I *D sky130_fd_sc_hd__xor2_1
*I *417:Y O *D sky130_fd_sc_hd__nand2_1
*CAP
1 *425:A2_N 0
2 *421:B1 0
3 *422:B 0.000119735
4 *419:A 4.01155e-05
5 *417:Y 0.000127539
6 *72:24 0.000273991
7 *72:18 0.000349199
8 *72:14 0.000305712
9 *72:10 0.000198192
10 *422:B *182:10 2.88036e-05
11 *72:10 *416:B 1.14876e-05
12 *72:10 *107:22 3.70187e-05
13 *72:14 *425:B2 4.67488e-05
14 *72:18 *433:A2 0.000228913
15 *72:18 *90:18 0.000491534
16 *72:18 *107:22 1.62615e-05
17 *72:18 *173:12 7.80035e-05
18 *72:24 *433:A2 7.461e-05
19 *72:24 *173:12 0.000162422
20 *72:24 *182:10 2.45549e-06
21 *408:A2 *72:18 0
22 *417:A *72:10 3.81554e-05
23 *417:B *72:10 6.17437e-06
24 *422:A *422:B 9.67842e-05
25 *61:12 *422:B 0.000139352
26 *61:12 *72:24 5.50106e-05
27 *71:12 *72:10 0.000164291
28 *71:12 *72:18 0.000141879
*RES
1 *417:Y *72:10 40.8793 
2 *72:10 *72:14 16.0979 
3 *72:14 *72:18 23.5964 
4 *72:18 *72:24 17.8793 
5 *72:24 *419:A 23.8493 
6 *72:24 *422:B 26.0243 
7 *72:18 *421:B1 38 
8 *72:14 *425:A2_N 23 
*END

*D_NET *73 0.00414623
*CONN
*I *433:A2 I *D sky130_fd_sc_hd__a21bo_1
*I *419:B I *D sky130_fd_sc_hd__xor2_1
*I *418:Y O *D sky130_fd_sc_hd__o31ai_2
*CAP
1 *433:A2 0.000437621
2 *419:B 0
3 *418:Y 0.000523172
4 *73:10 0.000645867
5 *73:8 0.000731418
6 *433:A2 *428:A1_N 0.000407208
7 *433:A2 *74:8 4.99753e-06
8 *433:A2 *82:10 2.80512e-05
9 *433:A2 *107:22 2.46345e-05
10 *433:A2 *107:37 5.3304e-05
11 *433:A2 *173:12 6.02277e-06
12 *73:8 *431:C 0.000662746
13 *73:8 *182:16 2.65879e-05
14 *73:10 *421:A2 0
15 *73:10 *75:10 0
16 *73:10 *173:12 5.79216e-05
17 *73:10 *182:10 0.000111852
18 *422:A *433:A2 2.96051e-05
19 *422:A *73:10 6.07611e-06
20 *61:33 *433:A2 5.62433e-05
21 *70:8 *433:A2 2.93747e-05
22 *72:18 *433:A2 0.000228913
23 *72:24 *433:A2 7.461e-05
*RES
1 *418:Y *73:8 46.7207 
2 *73:8 *73:10 4.01857 
3 *73:10 *419:B 38 
4 *73:10 *433:A2 48.6471 
*END

*D_NET *74 0.000807951
*CONN
*I *428:A2_N I *D sky130_fd_sc_hd__o2bb2a_1
*I *419:X O *D sky130_fd_sc_hd__xor2_1
*CAP
1 *428:A2_N 7.68064e-05
2 *419:X 0.000120725
3 *74:8 0.000197532
4 *428:A2_N *173:33 9.67842e-05
5 *74:8 *421:A2 0.000110913
6 *74:8 *428:A1_N 2.71291e-05
7 *74:8 *77:10 0
8 *74:8 *82:10 2.96051e-05
9 *422:A *74:8 1.01436e-05
10 *433:A2 *74:8 4.99753e-06
11 *61:33 *74:8 0.000133316
*RES
1 *419:X *74:8 40.9621 
2 *74:8 *428:A2_N 39.0979 
*END

*D_NET *75 0.00176193
*CONN
*I *421:A2 I *D sky130_fd_sc_hd__o21ai_1
*I *422:C I *D sky130_fd_sc_hd__or3_1
*I *420:X O *D sky130_fd_sc_hd__and2b_1
*CAP
1 *421:A2 0.000309675
2 *422:C 0
3 *420:X 0.000238178
4 *75:10 0.000547853
5 *421:A2 *76:6 0.00030373
6 *421:A2 *77:10 0
7 *421:A2 *173:33 2.43944e-05
8 *422:A *421:A2 2.24973e-05
9 *549:A *421:A2 0
10 *549:A *75:10 0
11 *61:33 *421:A2 0.00020469
12 *73:10 *421:A2 0
13 *73:10 *75:10 0
14 *74:8 *421:A2 0.000110913
*RES
1 *420:X *75:10 41.48 
2 *75:10 *422:C 38 
3 *75:10 *421:A2 44.5664 
*END

*D_NET *76 0.00299605
*CONN
*I *434:A2 I *D sky130_fd_sc_hd__a32o_1
*I *423:B I *D sky130_fd_sc_hd__and3_1
*I *421:Y O *D sky130_fd_sc_hd__o21ai_1
*CAP
1 *434:A2 0
2 *423:B 0
3 *421:Y 0.00042509
4 *76:21 0.000463957
5 *76:6 0.000889047
6 *76:6 *423:C 3.85863e-06
7 *76:6 *428:B1 5.67058e-05
8 *76:6 *173:33 2.07355e-05
9 *76:21 *415:B 2.95184e-05
10 *76:21 *423:C 2.45549e-06
11 *76:21 *77:10 0.000118174
12 *76:21 *82:10 0
13 *76:21 *92:28 0.000342621
14 *76:21 *107:14 7.15126e-05
15 *76:21 *173:33 4.06512e-05
16 *76:21 *183:10 0
17 *76:21 *183:12 0
18 result[7] *76:21 0.000130212
19 *421:A2 *76:6 0.00030373
20 *550:A *76:21 5.31929e-05
21 *16:11 *76:21 4.45839e-05
*RES
1 *421:Y *76:6 28.8621 
2 *76:6 *423:B 23 
3 *76:6 *76:21 41.1443 
4 *76:21 *434:A2 23 
*END

*D_NET *77 0.000547135
*CONN
*I *423:C I *D sky130_fd_sc_hd__and3_1
*I *422:X O *D sky130_fd_sc_hd__or3_1
*CAP
1 *423:C 2.26365e-05
2 *422:X 0.000183014
3 *77:10 0.00020565
4 *77:10 *82:10 0
5 *77:10 *173:33 4.6318e-06
6 *77:10 *182:10 6.71408e-06
7 *421:A2 *77:10 0
8 *74:8 *77:10 0
9 *76:6 *423:C 3.85863e-06
10 *76:21 *423:C 2.45549e-06
11 *76:21 *77:10 0.000118174
*RES
1 *422:X *77:10 41.2314 
2 *77:10 *423:C 38.2279 
*END

*D_NET *78 0.000145764
*CONN
*I *428:B1 I *D sky130_fd_sc_hd__o2bb2a_1
*I *423:X O *D sky130_fd_sc_hd__and3_1
*CAP
1 *428:B1 3.30143e-05
2 *423:X 3.30143e-05
3 *428:B1 *173:33 2.30292e-05
4 *61:33 *428:B1 0
5 *76:6 *428:B1 5.67058e-05
*RES
1 *423:X *428:B1 47.1186 
*END

*D_NET *79 0.000841873
*CONN
*I *427:B I *D sky130_fd_sc_hd__or4_1
*I *424:Y O *D sky130_fd_sc_hd__nor2_1
*CAP
1 *427:B 0
2 *424:Y 0.000293982
3 *79:10 0.000293982
4 *79:10 *407:A1 0
5 *79:10 *80:8 6.93553e-05
6 *79:10 *81:8 5.56306e-05
7 *79:10 *90:18 0
8 *79:10 *97:14 4.59027e-05
9 *79:10 *105:12 5.36457e-05
10 *79:10 *182:30 0
11 *79:10 *183:35 0
12 *424:B *79:10 2.93747e-05
*RES
1 *424:Y *79:10 44.4007 
2 *79:10 *427:B 38 
*END

*D_NET *80 0.000260916
*CONN
*I *427:C I *D sky130_fd_sc_hd__or4_1
*I *425:X O *D sky130_fd_sc_hd__a2bb2o_1
*CAP
1 *427:C 0
2 *425:X 5.93539e-05
3 *80:8 5.93539e-05
4 *80:8 *90:18 7.28526e-05
5 *79:10 *80:8 6.93553e-05
*RES
1 *425:X *80:8 39.9057 
2 *80:8 *427:C 38 
*END

*D_NET *81 0.000414624
*CONN
*I *427:D I *D sky130_fd_sc_hd__or4_1
*I *426:X O *D sky130_fd_sc_hd__a2bb2o_1
*CAP
1 *427:D 5.99037e-05
2 *426:X 6.59566e-05
3 *81:8 0.00012586
4 *427:D *107:39 5.41288e-05
5 *81:8 *407:A1 5.31444e-05
6 *79:10 *81:8 5.56306e-05
*RES
1 *426:X *81:8 39.5536 
2 *81:8 *427:D 39.0979 
*END

*D_NET *82 0.00134785
*CONN
*I *428:B2 I *D sky130_fd_sc_hd__o2bb2a_1
*I *427:X O *D sky130_fd_sc_hd__or4_1
*CAP
1 *428:B2 0
2 *427:X 0.000466286
3 *82:10 0.000466286
4 *82:10 *428:A1_N 0
5 *82:10 *107:37 7.15126e-05
6 *82:10 *173:33 7.03869e-05
7 *82:10 *183:10 8.4047e-05
8 *433:A2 *82:10 2.80512e-05
9 *550:A *82:10 3.58055e-05
10 *70:8 *82:10 9.58714e-05
11 *74:8 *82:10 2.96051e-05
12 *76:21 *82:10 0
13 *77:10 *82:10 0
*RES
1 *427:X *82:10 46.2029 
2 *82:10 *428:B2 38 
*END

*D_NET *83 0.00576762
*CONN
*I *430:B I *D sky130_fd_sc_hd__or2_1
*I *429:X O *D sky130_fd_sc_hd__or4_1
*CAP
1 *430:B 0
2 *429:X 0.000331724
3 *83:20 0.00114877
4 *83:8 0.0014805
5 *83:8 *169:14 0.000440593
6 *83:20 *411:A2 5.90075e-05
7 *83:20 *460:A1 2.29192e-05
8 *83:20 *475:A2 0.000140896
9 *83:20 *511:A2 8.62876e-05
10 *83:20 *100:25 0.000292865
11 *83:20 *105:34 0.000145051
12 *83:20 *105:57 2.01531e-05
13 *83:20 *106:41 0.000634621
14 *83:20 *124:8 1.01436e-05
15 *83:20 *146:57 0.000102649
16 *83:20 *147:26 0.000135039
17 *83:20 *147:37 0.000214312
18 *83:20 *150:10 0
19 *83:20 *164:68 3.3746e-05
20 *83:20 *166:10 4.96264e-05
21 *83:20 *170:10 0
22 *83:20 *181:68 0
23 *83:20 *181:94 5.29353e-05
24 *411:B1 *83:20 2.7203e-05
25 *36:16 *83:20 5.18101e-05
26 *47:12 *83:20 0.000231751
27 *67:8 *83:20 5.50106e-05
*RES
1 *429:X *83:8 42.9093 
2 *83:8 *83:20 40.7479 
3 *83:20 *430:B 23 
*END

*D_NET *84 0.000691695
*CONN
*I *431:D I *D sky130_fd_sc_hd__nor4_1
*I *430:X O *D sky130_fd_sc_hd__or2_1
*CAP
1 *431:D 0.000125395
2 *430:X 7.16416e-05
3 *84:8 0.000197037
4 *431:D *172:14 0.000139346
5 *431:D *172:22 0.00010018
6 *84:8 *557:A 5.80963e-05
7 *40:16 *84:8 0
*RES
1 *430:X *84:8 39.5536 
2 *84:8 *431:D 40.5271 
*END

*D_NET *85 0.000624911
*CONN
*I *434:A3 I *D sky130_fd_sc_hd__a32o_1
*I *432:Y O *D sky130_fd_sc_hd__nand2b_1
*CAP
1 *434:A3 0
2 *432:Y 0.000116281
3 *85:10 0.000116281
4 *85:10 *415:B 0.000194318
5 *85:10 *160:21 3.7122e-06
6 *16:11 *85:10 0.000194318
*RES
1 *432:Y *85:10 41.2314 
2 *85:10 *434:A3 38 
*END

*D_NET *86 0.000439372
*CONN
*I *434:B1 I *D sky130_fd_sc_hd__a32o_1
*I *433:X O *D sky130_fd_sc_hd__a21bo_1
*CAP
1 *434:B1 2.0432e-05
2 *433:X 8.96708e-05
3 *86:10 0.000110103
4 *434:B1 *107:14 1.19077e-05
5 *86:10 *415:A 3.22879e-05
6 *86:10 *415:B 4.85126e-05
7 *86:10 *92:16 1.01436e-05
8 *86:10 *183:12 0.000116314
*RES
1 *433:X *86:10 40.175 
2 *86:10 *434:B1 38.2796 
*END

*D_NET *87 0.00050502
*CONN
*I *491:A1 I *D sky130_fd_sc_hd__o211a_1
*I *435:Y O *D sky130_fd_sc_hd__inv_2
*CAP
1 *491:A1 1.7859e-05
2 *435:Y 0.000101508
3 *87:8 0.000119367
4 *491:A1 *492:A_N 0.000102389
5 *491:A1 *175:67 0.000100061
6 *87:8 *155:12 6.04724e-05
7 *87:8 *155:18 3.36312e-06
*RES
1 *435:Y *87:8 39.9057 
2 *87:8 *491:A1 39.0979 
*END

*D_NET *88 0.000777398
*CONN
*I *524:A1 I *D sky130_fd_sc_hd__o211a_1
*I *436:Y O *D sky130_fd_sc_hd__inv_2
*CAP
1 *524:A1 0
2 *436:Y 0.000309655
3 *88:8 0.000309655
4 *88:8 *144:14 5.50049e-05
5 *88:8 *146:8 8.2832e-05
6 *32:10 *88:8 2.02517e-05
*RES
1 *436:Y *88:8 28.4064 
2 *88:8 *524:A1 23 
*END

*D_NET *89 0.00152131
*CONN
*I *438:B I *D sky130_fd_sc_hd__nor2_2
*I *487:A2 I *D sky130_fd_sc_hd__o32a_1
*I *437:Y O *D sky130_fd_sc_hd__nand2_1
*CAP
1 *438:B 0
2 *487:A2 0.000245221
3 *437:Y 0
4 *89:21 0.000366309
5 *89:4 0.00061153
6 *487:A2 *437:A 1.42218e-05
7 *487:A2 *105:90 5.70419e-05
8 *487:A2 *107:79 5.02857e-05
9 *487:A2 *177:66 6.17437e-06
10 *89:21 *163:12 0
11 *89:21 *177:66 0.000170529
12 *89:21 *177:76 0
13 *89:21 *178:94 0
14 *89:21 *178:102 0
*RES
1 *437:Y *89:4 23 
2 *89:4 *487:A2 26.9771 
3 *89:4 *89:21 35.7379 
4 *89:21 *438:B 23 
*END

*D_NET *90 0.0136718
*CONN
*I *443:B1 I *D sky130_fd_sc_hd__o22a_1
*I *425:B2 I *D sky130_fd_sc_hd__a2bb2o_1
*I *477:A1 I *D sky130_fd_sc_hd__a211o_1
*I *458:B1 I *D sky130_fd_sc_hd__o21a_1
*I *509:B2 I *D sky130_fd_sc_hd__a221o_1
*I *520:A1_N I *D sky130_fd_sc_hd__o2bb2a_1
*I *408:A1 I *D sky130_fd_sc_hd__a21o_1
*I *438:Y O *D sky130_fd_sc_hd__nor2_2
*CAP
1 *443:B1 0
2 *425:B2 0.000144196
3 *477:A1 0
4 *458:B1 0.000111786
5 *509:B2 0.000200245
6 *520:A1_N 0
7 *408:A1 0
8 *438:Y 0.000395261
9 *90:86 0.00053294
10 *90:65 0.000887214
11 *90:50 0.000680845
12 *90:39 0.000321044
13 *90:35 0.0016023
14 *90:18 0.00209631
15 *90:10 0.0011051
16 *90:8 0.000779217
17 *458:B1 *453:A 5.56279e-05
18 *458:B1 *458:A2 5.40337e-05
19 *458:B1 *100:25 0.000316342
20 *458:B1 *101:39 5.50929e-05
21 *509:B2 *509:A2 0
22 *509:B2 *509:B1 1.69851e-05
23 *509:B2 *97:62 0.000100414
24 *90:8 *454:B 0
25 *90:8 *94:10 0.000214852
26 *90:8 *97:8 0
27 *90:8 *105:12 5.97612e-05
28 *90:8 *177:37 0
29 *90:8 *177:76 0
30 *90:8 *178:94 0
31 *90:10 *92:16 0
32 *90:10 *94:10 1.14452e-05
33 *90:10 *105:12 0.000305401
34 *90:10 *183:29 0
35 *90:10 *184:53 0
36 *90:18 *105:12 6.48142e-05
37 *90:35 *409:C1 0.000149672
38 *90:35 *93:54 4.05926e-05
39 *90:35 *105:34 0.000195517
40 *90:35 *108:24 0.000145784
41 *90:35 *181:68 0.000166513
42 *90:50 *97:62 1.58805e-05
43 *90:50 *180:66 2.33476e-05
44 *90:50 *181:68 0.000174081
45 *90:65 *92:81 0
46 *90:65 *97:62 0.00014202
47 *90:65 *102:32 1.01436e-05
48 *90:86 *92:81 0
49 *90:86 *102:32 0.000395503
50 *90:86 *105:71 0
51 *90:86 *107:103 0.000515943
52 *90:86 *126:12 2.64616e-05
53 *90:86 *168:27 0.000400606
54 *408:A2 *90:18 2.32101e-05
55 *408:A2 *90:35 1.24376e-05
56 *409:A2 *90:35 1.14154e-05
57 *417:A *90:10 0
58 *509:C1 *509:B2 5.05179e-06
59 *512:A1 *90:35 4.93812e-05
60 *512:A2 *90:35 2.18409e-05
61 *512:A3 *90:35 0.000188927
62 *520:A2_N *90:50 0
63 *523:A *90:39 2.64616e-05
64 *20:11 *90:8 4.62821e-05
65 *48:14 *90:50 0
66 *49:10 *90:39 2.81066e-05
67 *63:10 *90:18 0
68 *71:12 *90:10 0.000111852
69 *71:12 *90:18 2.24151e-05
70 *72:14 *425:B2 4.67488e-05
71 *72:18 *90:18 0.000491534
72 *79:10 *90:18 0
73 *80:8 *90:18 7.28526e-05
*RES
1 *438:Y *90:8 45.54 
2 *90:8 *90:10 8.24429 
3 *90:10 *90:18 26.7657 
4 *90:18 *408:A1 23 
5 *90:18 *90:35 38.1793 
6 *90:35 *90:39 16.2687 
7 *90:39 *520:A1_N 23 
8 *90:39 *90:50 18.6664 
9 *90:50 *509:B2 41.4179 
10 *90:50 *90:65 4.37071 
11 *90:65 *458:B1 41.9771 
12 *90:65 *90:86 28.1536 
13 *90:86 *477:A1 23 
14 *90:10 *425:B2 40.0714 
15 *90:8 *443:B1 38 
*END

*D_NET *91 0.00666225
*CONN
*I *446:A1 I *D sky130_fd_sc_hd__o22ai_1
*I *463:A I *D sky130_fd_sc_hd__xor2_1
*I *468:A1 I *D sky130_fd_sc_hd__o21ai_1
*I *439:Y O *D sky130_fd_sc_hd__nand2_1
*CAP
1 *446:A1 0
2 *463:A 0.0001859
3 *468:A1 0
4 *439:Y 5.03899e-05
5 *91:28 0.000590924
6 *91:22 0.000803932
7 *91:12 0.000570399
8 *91:8 0.000221881
9 *463:A *470:B 0
10 *463:A *471:A1 2.77955e-05
11 *463:A *100:12 1.02387e-05
12 *463:A *101:16 0.00014411
13 *463:A *152:12 0
14 *463:A *154:23 0
15 *463:A *164:38 6.07611e-06
16 *91:8 *93:27 0.000169683
17 *91:8 *108:14 0.000169683
18 *91:12 *97:44 0.000183733
19 *91:12 *97:46 0.000181131
20 *91:12 *153:24 0.000301719
21 *91:12 *153:32 9.5877e-05
22 *91:22 *489:A1_N 0.000272383
23 *91:22 *510:A1 0.000309618
24 *91:22 *96:37 0
25 *91:22 *96:48 1.56665e-05
26 *91:22 *105:48 1.71761e-05
27 *91:22 *138:8 5.50049e-05
28 *91:22 *138:12 0.000138727
29 *91:22 *164:68 0.000142634
30 *91:22 *179:22 8.78464e-05
31 *91:28 *105:48 0.000536315
32 *91:28 *145:76 0.000269688
33 *91:28 *164:8 0
34 *91:28 *164:30 9.84851e-05
35 *91:28 *164:38 8.16356e-05
36 *91:28 *164:45 0.000692929
37 *91:28 *164:68 0.000230668
*RES
1 *439:Y *91:8 40.2579 
2 *91:8 *91:12 20.3857 
3 *91:12 *91:22 40.0464 
4 *91:22 *91:28 31.095 
5 *91:28 *468:A1 38 
6 *91:28 *463:A 42.0807 
7 *91:12 *446:A1 23 
*END

*D_NET *92 0.0151559
*CONN
*I *462:A1 I *D sky130_fd_sc_hd__a311o_1
*I *506:B1 I *D sky130_fd_sc_hd__o21a_1
*I *478:A1 I *D sky130_fd_sc_hd__a31o_1
*I *434:A1 I *D sky130_fd_sc_hd__a32o_1
*I *423:A I *D sky130_fd_sc_hd__and3_1
*I *440:Y O *D sky130_fd_sc_hd__nor3b_2
*CAP
1 *462:A1 0.000131875
2 *506:B1 0
3 *478:A1 0
4 *434:A1 0
5 *423:A 0
6 *440:Y 2.73927e-05
7 *92:81 0.000533017
8 *92:75 0.000912177
9 *92:66 0.000394862
10 *92:54 0.00275458
11 *92:28 0.00060466
12 *92:16 0.00119702
13 *92:8 0.00273219
14 *462:A1 *464:A3 0
15 *462:A1 *103:16 5.53064e-05
16 *462:A1 *112:10 4.27352e-05
17 *92:8 *161:10 8.94487e-05
18 *92:8 *177:10 3.92407e-05
19 *92:8 *177:12 5.15096e-05
20 *92:16 *415:B 0.0003055
21 *92:16 *442:B2 2.49733e-05
22 *92:16 *442:C1 5.94125e-05
23 *92:16 *107:14 0
24 *92:16 *153:67 0.000166522
25 *92:16 *160:8 0.000103949
26 *92:16 *161:10 0.000135313
27 *92:16 *176:14 4.98718e-06
28 *92:16 *177:12 0.000107508
29 *92:16 *183:12 0.000134585
30 *92:16 *183:29 2.71291e-05
31 *92:16 *184:8 4.08537e-05
32 *92:16 *184:53 5.55278e-05
33 *92:28 *107:14 4.56219e-05
34 *92:54 *444:B 0.000194723
35 *92:54 *475:A1 1.08287e-05
36 *92:54 *475:A2 0.000353089
37 *92:54 *105:90 0.000397259
38 *92:54 *167:27 2.64616e-05
39 *92:54 *178:27 0.000206946
40 *92:54 *178:29 0.000328926
41 *92:54 *178:33 0.000522694
42 *92:66 *464:B2 4.97925e-05
43 *92:66 *479:A1 0.000180036
44 *92:66 *122:16 1.14452e-05
45 *92:66 *123:10 1.50123e-05
46 *92:66 *167:27 0.000150242
47 *92:75 *464:B2 0
48 *92:75 *104:10 6.48142e-05
49 *92:75 *107:103 0
50 *92:75 *109:10 0
51 *92:75 *167:10 0.000218952
52 *92:75 *167:27 7.48331e-05
53 *92:81 *509:B1 0.000287722
54 *92:81 *104:10 0.000114083
55 *92:81 *105:48 0.000218952
56 *92:81 *109:10 0
57 *92:81 *152:23 0
58 *92:81 *164:51 4.90994e-05
59 *92:81 *180:54 0.000400198
60 result[7] *92:28 0.000112619
61 *425:B1 *92:28 0
62 *533:A *92:16 0
63 *9:13 *92:16 0
64 *16:11 *92:16 3.64851e-05
65 *76:21 *92:28 0.000342621
66 *86:10 *92:16 1.01436e-05
67 *90:10 *92:16 0
68 *90:65 *92:81 0
69 *90:86 *92:81 0
*RES
1 *440:Y *92:8 39.2014 
2 *92:8 *92:16 30.4736 
3 *92:16 *92:28 41.31 
4 *92:28 *423:A 23 
5 *92:16 *434:A1 23 
6 *92:8 *92:54 48.9921 
7 *92:54 *92:66 37.4364 
8 *92:66 *478:A1 23 
9 *92:54 *92:75 20.4271 
10 *92:75 *92:81 27.6771 
11 *92:81 *506:B1 23 
12 *92:75 *462:A1 40.4236 
*END

*D_NET *93 0.0120962
*CONN
*I *527:A I *D sky130_fd_sc_hd__or4_1
*I *410:A1 I *D sky130_fd_sc_hd__o31ai_1
*I *493:B1 I *D sky130_fd_sc_hd__a31o_1
*I *441:X O *D sky130_fd_sc_hd__or3b_2
*CAP
1 *527:A 0
2 *410:A1 9.16774e-05
3 *493:B1 0.00066109
4 *441:X 0.000177354
5 *93:54 0.00122613
6 *93:27 0.0019889
7 *93:14 0.00151808
8 *93:6 0.00170544
9 *493:B1 *495:C1 2.61526e-05
10 *493:B1 *499:A1 0.000139487
11 *493:B1 *499:B1 0.000351519
12 *493:B1 *504:C1 0
13 *493:B1 *129:6 0.000127821
14 *493:B1 *132:20 3.70553e-06
15 *493:B1 *179:57 1.40958e-05
16 *93:14 *96:10 0.000164291
17 *93:14 *105:90 0
18 *93:14 *108:10 0
19 *93:14 *108:14 0
20 *93:14 *130:8 0
21 *93:14 *179:16 0.00026722
22 *93:14 *179:22 1.19692e-05
23 *93:27 *447:C 4.96264e-05
24 *93:27 *105:24 0.000364528
25 *93:27 *106:79 0.000140669
26 *93:27 *107:56 0
27 *93:27 *108:14 0.000321517
28 *93:54 *409:C1 1.03836e-05
29 *93:54 *512:B1 2.86398e-05
30 *93:54 *105:34 0.000829454
31 *93:54 *170:10 0.000358639
32 *409:A2 *93:54 2.3853e-05
33 *512:A1 *93:54 0.000183269
34 *512:A2 *93:54 6.79713e-05
35 *527:D *93:54 4.00259e-06
36 *42:10 *93:54 0.000133805
37 *53:10 *93:54 9.58714e-05
38 *55:36 *410:A1 6.6869e-05
39 *55:36 *93:27 6.43108e-05
40 *59:20 *410:A1 3.70094e-05
41 *62:10 *93:27 0.000575577
42 *65:10 *410:A1 0
43 *65:10 *93:54 5.50106e-05
44 *90:35 *93:54 4.05926e-05
45 *91:8 *93:27 0.000169683
*RES
1 *441:X *93:6 25.0507 
2 *93:6 *93:14 45.37 
3 *93:14 *493:B1 32.57 
4 *93:6 *93:27 32.0479 
5 *93:27 *410:A1 39.9057 
6 *93:27 *93:54 39.9607 
7 *93:54 *527:A 23 
*END

*D_NET *94 0.00119601
*CONN
*I *443:B2 I *D sky130_fd_sc_hd__o22a_1
*I *442:Y O *D sky130_fd_sc_hd__a221oi_1
*CAP
1 *443:B2 0
2 *442:Y 0.000230346
3 *94:10 0.000230346
4 *94:10 *441:B 5.50106e-05
5 *94:10 *161:10 0.000265466
6 *94:10 *176:18 4.6595e-05
7 *94:10 *177:37 0.000141954
8 *94:10 *184:53 0
9 *90:8 *94:10 0.000214852
10 *90:10 *94:10 1.14452e-05
*RES
1 *442:Y *94:10 43.9657 
2 *94:10 *443:B2 38 
*END

*D_NET *95 0.00206295
*CONN
*I *448:C1 I *D sky130_fd_sc_hd__a211o_1
*I *443:X O *D sky130_fd_sc_hd__o22a_1
*CAP
1 *448:C1 0
2 *443:X 0.000381022
3 *95:8 0.000381022
4 *95:8 *439:A 5.3304e-05
5 *95:8 *448:A1 1.37232e-05
6 *95:8 *451:B 6.82471e-05
7 *95:8 *99:10 0.000454781
8 *95:8 *102:10 5.67058e-05
9 *95:8 *184:24 0.000654145
*RES
1 *443:X *95:8 34.6 
2 *95:8 *448:C1 23 
*END

*D_NET *96 0.0104022
*CONN
*I *488:B2 I *D sky130_fd_sc_hd__o2bb2a_1
*I *459:B2 I *D sky130_fd_sc_hd__o22a_1
*I *446:A2 I *D sky130_fd_sc_hd__o22ai_1
*I *424:A I *D sky130_fd_sc_hd__nor2_1
*I *406:B2 I *D sky130_fd_sc_hd__o22a_1
*I *521:B2 I *D sky130_fd_sc_hd__o2bb2a_1
*I *510:A1 I *D sky130_fd_sc_hd__o22ai_1
*I *476:A1 I *D sky130_fd_sc_hd__o21ai_1
*I *444:X O *D sky130_fd_sc_hd__or3b_4
*CAP
1 *488:B2 3.87103e-05
2 *459:B2 7.93305e-05
3 *446:A2 0.000244782
4 *424:A 0.000223696
5 *406:B2 1.74641e-05
6 *521:B2 0
7 *510:A1 9.15774e-05
8 *476:A1 0.000154702
9 *444:X 0.000447022
10 *96:65 0.000666127
11 *96:54 6.9105e-05
12 *96:48 0.000552025
13 *96:37 0.000353732
14 *96:31 0.000550417
15 *96:29 0.000471414
16 *96:18 0.00063289
17 *96:12 0.000226248
18 *96:10 0.000447022
19 *424:A *97:32 0.000164655
20 *424:A *183:35 5.3304e-05
21 *446:A2 *153:32 0.000168985
22 *459:B2 *459:A1 8.78791e-05
23 *459:B2 *164:68 2.18286e-05
24 *459:B2 *164:79 3.42179e-05
25 *459:B2 *166:10 0.000182087
26 *476:A1 *476:B1 0.000137651
27 *476:A1 *477:B1 0.000221997
28 *476:A1 *488:A1_N 0.000112148
29 *488:B2 *106:14 2.02872e-05
30 *510:A1 *105:34 0.000180212
31 *510:A1 *105:36 5.50106e-05
32 *510:A1 *105:48 5.56279e-05
33 *510:A1 *146:93 1.56762e-05
34 *96:10 *444:A 2.4754e-05
35 *96:10 *444:B 2.31797e-05
36 *96:10 *105:90 0.000220572
37 *96:10 *178:33 2.45549e-06
38 *96:10 *179:16 8.16356e-05
39 *96:18 *488:A1_N 0.000227209
40 *96:18 *106:14 7.44257e-05
41 *96:18 *106:20 5.94921e-06
42 *96:18 *137:10 7.44257e-05
43 *96:29 *475:A2 9.58906e-05
44 *96:29 *106:20 0.000359542
45 *96:29 *106:26 0.000163361
46 *96:29 *138:12 0
47 *96:29 *169:14 0.000366525
48 *96:31 *475:A2 5.21024e-05
49 *96:31 *97:71 3.72639e-05
50 *96:31 *102:10 4.85126e-05
51 *96:31 *106:26 8.72173e-05
52 *96:37 *489:A1_N 1.01436e-05
53 *96:37 *97:71 0.000114083
54 *96:37 *102:10 2.472e-05
55 *96:37 *106:41 7.45278e-05
56 *96:37 *138:12 0
57 *96:48 *489:A1_N 5.3304e-05
58 *96:48 *146:93 9.58714e-05
59 *96:54 *489:A1_N 0.000138718
60 *96:54 *146:93 5.56203e-05
61 *96:65 *489:A1_N 0.000328849
62 *96:65 *489:B2 8.93008e-05
63 *96:65 *97:32 3.3577e-05
64 *96:65 *97:36 3.16665e-05
65 *96:65 *146:93 8.43466e-05
66 *55:36 *424:A 5.50049e-05
67 *91:22 *510:A1 0.000309618
68 *91:22 *96:37 0
69 *91:22 *96:48 1.56665e-05
70 *93:14 *96:10 0.000164291
*RES
1 *444:X *96:10 45.6436 
2 *96:10 *96:12 15 
3 *96:12 *96:18 5.075 
4 *96:18 *476:A1 26.9564 
5 *96:18 *96:29 22.8921 
6 *96:29 *96:31 2.61 
7 *96:31 *96:37 19.2879 
8 *96:37 *510:A1 26.48 
9 *96:37 *96:48 1.595 
10 *96:48 *96:54 31.9057 
11 *96:54 *521:B2 23 
12 *96:48 *96:65 9.23857 
13 *96:65 *406:B2 23.4971 
14 *96:65 *424:A 28.075 
15 *96:31 *446:A2 41.48 
16 *96:29 *459:B2 40.5479 
17 *96:12 *488:B2 23.6214 
*END

*D_NET *97 0.0106625
*CONN
*I *406:A2 I *D sky130_fd_sc_hd__o22a_1
*I *489:B1 I *D sky130_fd_sc_hd__o2bb2a_1
*I *446:B1 I *D sky130_fd_sc_hd__o22ai_1
*I *475:A2 I *D sky130_fd_sc_hd__o22a_1
*I *459:A2 I *D sky130_fd_sc_hd__o22a_1
*I *508:B I *D sky130_fd_sc_hd__nor2_1
*I *426:A2_N I *D sky130_fd_sc_hd__a2bb2o_1
*I *522:B1 I *D sky130_fd_sc_hd__o2bb2a_1
*I *445:Y O *D sky130_fd_sc_hd__nand3b_4
*CAP
1 *406:A2 0
2 *489:B1 0
3 *446:B1 0
4 *475:A2 0.000366822
5 *459:A2 0
6 *508:B 0
7 *426:A2_N 2.14194e-05
8 *522:B1 0.000271878
9 *445:Y 0.000619574
10 *97:71 0.000445082
11 *97:62 0.000670745
12 *97:46 0.00105209
13 *97:44 0.000522935
14 *97:36 0.000317455
15 *97:32 0.000376062
16 *97:14 0.000428928
17 *97:8 0.00103366
18 *426:A2_N *105:24 5.90675e-06
19 *475:A2 *475:A1 1.59071e-05
20 *475:A2 *105:71 9.64943e-05
21 *475:A2 *105:90 0.000114846
22 *475:A2 *106:41 2.55642e-05
23 *475:A2 *124:8 0.000109443
24 *475:A2 *169:14 0.000135016
25 *522:B1 *522:A1_N 2.4754e-05
26 *522:B1 *105:24 3.34247e-05
27 *522:B1 *182:30 5.50049e-05
28 *522:B1 *182:32 0.000302823
29 *97:8 *105:12 0
30 *97:8 *106:79 0
31 *97:8 *176:33 0.000138718
32 *97:8 *177:82 0.000109927
33 *97:8 *183:35 7.70737e-05
34 *97:14 *105:12 0
35 *97:14 *105:24 3.77227e-05
36 *97:14 *183:35 0.000167452
37 *97:44 *99:53 0
38 *97:44 *99:66 0
39 *97:44 *108:14 7.55595e-05
40 *97:44 *182:51 3.92407e-05
41 *97:46 *102:14 0.000182826
42 *97:46 *153:32 8.54619e-05
43 *97:62 *100:25 0.000225523
44 *97:62 *102:14 0.000348826
45 *97:62 *102:32 1.01436e-05
46 *97:62 *180:54 3.81033e-05
47 *97:71 *106:41 0.000191157
48 *424:A *97:32 0.000164655
49 *509:B2 *97:62 0.000100414
50 *509:C1 *97:62 7.30532e-05
51 *20:11 *97:8 0
52 *55:36 *97:32 2.93747e-05
53 *62:10 *97:32 9.41704e-05
54 *79:10 *97:14 4.59027e-05
55 *83:20 *475:A2 0.000140896
56 *90:8 *97:8 0
57 *90:50 *97:62 1.58805e-05
58 *90:65 *97:62 0.00014202
59 *91:12 *97:44 0.000183733
60 *91:12 *97:46 0.000181131
61 *92:54 *475:A2 0.000353089
62 *96:29 *475:A2 9.58906e-05
63 *96:31 *475:A2 5.21024e-05
64 *96:31 *97:71 3.72639e-05
65 *96:37 *97:71 0.000114083
66 *96:65 *97:32 3.3577e-05
67 *96:65 *97:36 3.16665e-05
*RES
1 *445:Y *97:8 49.7657 
2 *97:8 *97:14 18.3557 
3 *97:14 *522:B1 28.3857 
4 *97:14 *426:A2_N 23.4971 
5 *97:8 *97:32 20.3857 
6 *97:32 *97:36 1.595 
7 *97:36 *97:44 34.6607 
8 *97:44 *97:46 5.86214 
9 *97:46 *97:62 42.8221 
10 *97:62 *508:B 23 
11 *97:46 *97:71 17.61 
12 *97:71 *459:A2 38 
13 *97:71 *475:A2 48.0879 
14 *97:44 *446:B1 23 
15 *97:36 *489:B1 23 
16 *97:32 *406:A2 23 
*END

*D_NET *98 0.000507435
*CONN
*I *448:B1 I *D sky130_fd_sc_hd__a211o_1
*I *446:Y O *D sky130_fd_sc_hd__o22ai_1
*CAP
1 *448:B1 0
2 *446:Y 0.000154478
3 *98:10 0.000154478
4 *98:10 *99:53 8.4047e-05
5 *98:10 *153:24 3.22879e-05
6 *98:10 *153:32 7.53384e-06
7 *98:10 *179:22 7.461e-05
*RES
1 *446:Y *98:10 40.8793 
2 *98:10 *448:B1 38 
*END

*D_NET *99 0.00825268
*CONN
*I *407:A2 I *D sky130_fd_sc_hd__a22o_1
*I *509:A2 I *D sky130_fd_sc_hd__a221o_1
*I *522:A2_N I *D sky130_fd_sc_hd__o2bb2a_1
*I *489:A2_N I *D sky130_fd_sc_hd__o2bb2a_1
*I *474:A2 I *D sky130_fd_sc_hd__a22o_1
*I *460:A2 I *D sky130_fd_sc_hd__a21bo_1
*I *448:A2 I *D sky130_fd_sc_hd__a211o_1
*I *447:X O *D sky130_fd_sc_hd__and3_2
*CAP
1 *407:A2 0.000264456
2 *509:A2 0.000518672
3 *522:A2_N 0
4 *489:A2_N 3.65094e-05
5 *474:A2 2.0995e-05
6 *460:A2 0.000140299
7 *448:A2 5.62427e-05
8 *447:X 0.000330189
9 *99:72 0.000578021
10 *99:66 0.000607653
11 *99:53 0.000518943
12 *99:35 0.00043012
13 *99:16 0.000583092
14 *99:10 0.000786797
15 *407:A2 *407:A1 5.3304e-05
16 *407:A2 *407:B1 3.17027e-05
17 *407:A2 *511:B1 5.41288e-05
18 *407:A2 *107:39 0.000175809
19 *407:A2 *179:30 4.53539e-05
20 *407:A2 *181:102 8.55553e-05
21 *448:A2 *448:A1 9.5877e-05
22 *448:A2 *166:10 6.17437e-06
23 *460:A2 *460:A1 5.3304e-05
24 *460:A2 *460:B1_N 2.98648e-05
25 *460:A2 *166:16 4.5e-05
26 *460:A2 *169:14 0.000352191
27 *489:A2_N *179:22 2.46922e-05
28 *509:A2 *521:A1_N 0.000138076
29 *509:A2 *522:A1_N 1.86516e-05
30 *509:A2 *181:94 0.000326843
31 *99:10 *102:10 5.50106e-05
32 *99:16 *102:10 0.00028122
33 *99:16 *106:26 3.95159e-06
34 *99:16 *138:12 8.4047e-05
35 *99:16 *164:85 3.70187e-05
36 *99:35 *474:A1 6.04336e-05
37 *99:35 *106:20 1.7992e-05
38 *99:35 *138:12 0.000244526
39 *99:35 *164:85 0.000181943
40 *99:35 *169:14 1.32314e-05
41 *99:53 *153:24 0
42 *99:53 *179:22 7.27897e-05
43 *99:66 *179:22 6.43108e-05
44 *99:66 *179:30 0.000101564
45 *99:66 *181:102 2.66127e-05
46 *99:66 *182:51 0
47 *99:72 *179:30 2.47015e-05
48 *509:B2 *509:A2 0
49 *509:C1 *509:A2 0
50 *48:14 *509:A2 3.59821e-05
51 *95:8 *99:10 0.000454781
52 *97:44 *99:53 0
53 *97:44 *99:66 0
54 *98:10 *99:53 8.4047e-05
*RES
1 *447:X *99:10 29.5043 
2 *99:10 *99:16 19.205 
3 *99:16 *448:A2 39.0979 
4 *99:16 *99:35 21.4836 
5 *99:35 *460:A2 26.9564 
6 *99:35 *474:A2 23.4971 
7 *99:10 *99:53 18.8425 
8 *99:53 *489:A2_N 38.9425 
9 *99:53 *99:66 5.075 
10 *99:66 *99:72 15.9425 
11 *99:72 *522:A2_N 23 
12 *99:72 *509:A2 32.3577 
13 *99:66 *407:A2 43.9761 
*END

*D_NET *100 0.00393402
*CONN
*I *459:B1 I *D sky130_fd_sc_hd__o22a_1
*I *468:B1 I *D sky130_fd_sc_hd__o21ai_1
*I *449:Y O *D sky130_fd_sc_hd__nand2_1
*CAP
1 *459:B1 0
2 *468:B1 0
3 *449:Y 0
4 *100:25 0.000977567
5 *100:12 0.000116429
6 *100:4 0.001094
7 *100:12 *152:12 8.62876e-05
8 *100:12 *154:40 9.5877e-05
9 *100:12 *164:38 5.94125e-05
10 *100:25 *453:A 1.56762e-05
11 *100:25 *458:A2 0.000151629
12 *100:25 *102:14 1.64259e-05
13 *100:25 *102:18 0.000141802
14 *100:25 *105:57 1.12487e-05
15 *100:25 *154:40 5.67058e-05
16 *100:25 *164:68 0.00026599
17 *458:B1 *100:25 0.000316342
18 *463:A *100:12 1.02387e-05
19 *83:20 *100:25 0.000292865
20 *97:62 *100:25 0.000225523
*RES
1 *449:Y *100:4 23 
2 *100:4 *100:12 32.2993 
3 *100:12 *468:B1 23 
4 *100:4 *100:25 47.0271 
5 *100:25 *459:B1 23 
*END

*D_NET *101 0.00340723
*CONN
*I *461:A1_N I *D sky130_fd_sc_hd__a2bb2o_1
*I *452:A I *D sky130_fd_sc_hd__nand2_1
*I *453:A I *D sky130_fd_sc_hd__or2_1
*I *468:A2 I *D sky130_fd_sc_hd__o21ai_1
*I *471:A1 I *D sky130_fd_sc_hd__a21o_1
*I *463:B I *D sky130_fd_sc_hd__xor2_1
*I *450:Y O *D sky130_fd_sc_hd__xnor2_2
*CAP
1 *461:A1_N 0
2 *452:A 1.44114e-05
3 *453:A 2.7789e-05
4 *468:A2 0
5 *471:A1 9.25159e-05
6 *463:B 0
7 *450:Y 7.64432e-05
8 *101:63 0.000112425
9 *101:41 8.05607e-05
10 *101:39 0.000583454
11 *101:16 0.000178354
12 *101:10 0.000105896
13 *101:8 0.000529169
14 *452:A *102:18 4.08664e-05
15 *453:A *102:18 1.24376e-05
16 *471:A1 *470:B 0
17 *471:A1 *118:14 8.14827e-05
18 *101:8 *458:A2 0
19 *101:8 *154:40 2.54193e-05
20 *101:16 *118:14 7.03766e-05
21 *101:39 *458:A2 0.000490432
22 *101:39 *104:10 0.000146822
23 *101:39 *109:10 0.00010018
24 *101:39 *154:40 3.75815e-05
25 *101:39 *164:38 4.67488e-05
26 *101:41 *102:18 4.00259e-06
27 *101:63 *102:32 0.000166522
28 *101:63 *103:8 8.50366e-05
29 *458:B1 *453:A 5.56279e-05
30 *458:B1 *101:39 5.50929e-05
31 *463:A *471:A1 2.77955e-05
32 *463:A *101:16 0.00014411
33 *100:25 *453:A 1.56762e-05
*RES
1 *450:Y *101:8 24.595 
2 *101:8 *101:10 0.497143 
3 *101:10 *101:16 17.5271 
4 *101:16 *463:B 38 
5 *101:16 *471:A1 40.2579 
6 *101:10 *468:A2 23 
7 *101:8 *101:39 10.6264 
8 *101:39 *101:41 0.849286 
9 *101:41 *453:A 24.0979 
10 *101:41 *452:A 23.6214 
11 *101:39 *101:63 32.8793 
12 *101:63 *461:A1_N 23 
*END

*D_NET *102 0.00626727
*CONN
*I *452:B I *D sky130_fd_sc_hd__nand2_1
*I *453:B I *D sky130_fd_sc_hd__or2_1
*I *471:A2 I *D sky130_fd_sc_hd__a21o_1
*I *451:Y O *D sky130_fd_sc_hd__nand2b_1
*CAP
1 *452:B 0
2 *453:B 0
3 *471:A2 0
4 *451:Y 0.000277334
5 *102:32 0.000918537
6 *102:18 0.000996288
7 *102:14 0.000264455
8 *102:10 0.000464039
9 *102:10 *448:A1 0.000166987
10 *102:10 *106:26 1.01436e-05
11 *102:10 *138:12 4.48835e-05
12 *102:10 *164:79 5.50106e-05
13 *102:14 *153:32 0.00047308
14 *102:32 *429:B 2.72475e-06
15 *102:32 *471:B1 4.00259e-06
16 *102:32 *105:57 0
17 *102:32 *105:71 0
18 *102:32 *111:10 0.000114074
19 *102:32 *153:32 0
20 *102:32 *166:16 9.64943e-05
21 *102:32 *166:26 0.000572725
22 *102:32 *169:14 1.08287e-05
23 *452:A *102:18 4.08664e-05
24 *453:A *102:18 1.24376e-05
25 *90:65 *102:32 1.01436e-05
26 *90:86 *102:32 0.000395503
27 *95:8 *102:10 5.67058e-05
28 *96:31 *102:10 4.85126e-05
29 *96:37 *102:10 2.472e-05
30 *97:46 *102:14 0.000182826
31 *97:62 *102:14 0.000348826
32 *97:62 *102:32 1.01436e-05
33 *99:10 *102:10 5.50106e-05
34 *99:16 *102:10 0.00028122
35 *100:25 *102:14 1.64259e-05
36 *100:25 *102:18 0.000141802
37 *101:41 *102:18 4.00259e-06
38 *101:63 *102:32 0.000166522
*RES
1 *451:Y *102:10 45.0429 
2 *102:10 *102:14 21.3386 
3 *102:14 *102:18 2.07143 
4 *102:18 *102:32 47.1929 
5 *102:32 *471:A2 23 
6 *102:18 *453:B 23 
7 *102:14 *452:B 23 
*END

*D_NET *103 0.00118079
*CONN
*I *462:A2 I *D sky130_fd_sc_hd__a311o_1
*I *452:Y O *D sky130_fd_sc_hd__nand2_1
*CAP
1 *462:A2 0
2 *452:Y 5.28078e-05
3 *103:16 0.000374046
4 *103:8 0.000426854
5 *103:8 *153:32 2.04854e-05
6 *103:16 *461:A2_N 3.7122e-06
7 *103:16 *462:C1 4.24796e-05
8 *103:16 *104:10 9.02595e-05
9 *103:16 *107:103 3.36312e-06
10 *103:16 *112:10 2.64363e-05
11 *462:A1 *103:16 5.53064e-05
12 *101:63 *103:8 8.50366e-05
*RES
1 *452:Y *103:8 39.2014 
2 *103:8 *103:16 35.1579 
3 *103:16 *462:A2 38 
*END

*D_NET *104 0.000769226
*CONN
*I *462:A3 I *D sky130_fd_sc_hd__a311o_1
*I *453:X O *D sky130_fd_sc_hd__or2_1
*CAP
1 *462:A3 0
2 *453:X 0.000176624
3 *104:10 0.000176624
4 *92:75 *104:10 6.48142e-05
5 *92:81 *104:10 0.000114083
6 *101:39 *104:10 0.000146822
7 *103:16 *104:10 9.02595e-05
*RES
1 *453:X *104:10 41.8321 
2 *104:10 *462:A3 38 
*END

*D_NET *105 0.0164527
*CONN
*I *425:A1_N I *D sky130_fd_sc_hd__a2bb2o_1
*I *409:A1 I *D sky130_fd_sc_hd__o211a_1
*I *510:B2 I *D sky130_fd_sc_hd__o22ai_1
*I *461:A2_N I *D sky130_fd_sc_hd__a2bb2o_1
*I *487:B2 I *D sky130_fd_sc_hd__o32a_1
*I *475:B1 I *D sky130_fd_sc_hd__o22a_1
*I *520:B2 I *D sky130_fd_sc_hd__o2bb2a_1
*I *454:X O *D sky130_fd_sc_hd__or3b_2
*CAP
1 *425:A1_N 4.29745e-05
2 *409:A1 0
3 *510:B2 0
4 *461:A2_N 0.000148989
5 *487:B2 0
6 *475:B1 0
7 *520:B2 0
8 *454:X 0.000199735
9 *105:90 0.000739328
10 *105:71 0.00118179
11 *105:57 0.000904147
12 *105:48 0.000465845
13 *105:36 0.000796621
14 *105:34 0.000642304
15 *105:24 0.00139558
16 *105:12 0.00127472
17 *105:8 0.000660118
18 *461:A2_N *461:B1 5.56279e-05
19 *105:8 *176:18 0.000267173
20 *105:24 *108:14 0.000345304
21 *105:24 *182:30 2.18409e-05
22 *105:24 *182:32 0.000110533
23 *105:34 *409:C1 4.17736e-05
24 *105:34 *489:A1_N 2.24973e-05
25 *105:34 *511:A2 8.62876e-05
26 *105:34 *106:41 0.000257715
27 *105:34 *108:24 0.000269781
28 *105:34 *146:93 9.41704e-05
29 *105:48 *145:76 0.000337422
30 *105:48 *152:23 0
31 *105:57 *153:32 9.19153e-05
32 *105:57 *164:68 0.000339893
33 *105:71 *460:A1 0.000194336
34 *105:71 *475:A1 4.05745e-05
35 *105:71 *107:103 0
36 *105:71 *110:8 8.71559e-05
37 *105:71 *166:10 1.12919e-05
38 *105:90 *444:A 0.000199183
39 *105:90 *444:B 1.65699e-05
40 *105:90 *475:A1 5.50106e-05
41 *105:90 *487:A1 0.00021382
42 *105:90 *107:79 9.91798e-05
43 *105:90 *108:10 0.000108681
44 *105:90 *130:8 6.63801e-05
45 *426:A2_N *105:24 5.90675e-06
46 *475:A2 *105:71 9.64943e-05
47 *475:A2 *105:90 0.000114846
48 *487:A2 *105:90 5.70419e-05
49 *510:A1 *105:34 0.000180212
50 *510:A1 *105:36 5.50106e-05
51 *510:A1 *105:48 5.56279e-05
52 *520:A2_N *105:48 9.2645e-05
53 *520:B1 *105:48 4.84129e-06
54 *521:B1 *105:34 0
55 *522:B1 *105:24 3.34247e-05
56 *37:10 *105:34 0.000381531
57 *37:10 *105:36 7.53384e-06
58 *79:10 *105:12 5.36457e-05
59 *83:20 *105:34 0.000145051
60 *83:20 *105:57 2.01531e-05
61 *90:8 *105:12 5.97612e-05
62 *90:10 *105:12 0.000305401
63 *90:18 *105:12 6.48142e-05
64 *90:35 *105:34 0.000195517
65 *90:86 *105:71 0
66 *91:22 *105:48 1.71761e-05
67 *91:28 *105:48 0.000536315
68 *92:54 *105:90 0.000397259
69 *92:81 *105:48 0.000218952
70 *93:14 *105:90 0
71 *93:27 *105:24 0.000364528
72 *93:54 *105:34 0.000829454
73 *96:10 *105:90 0.000220572
74 *97:8 *105:12 0
75 *97:14 *105:12 0
76 *97:14 *105:24 3.77227e-05
77 *100:25 *105:57 1.12487e-05
78 *102:32 *105:57 0
79 *102:32 *105:71 0
80 *103:16 *461:A2_N 3.7122e-06
*RES
1 *454:X *105:8 41.0036 
2 *105:8 *105:12 25.7093 
3 *105:12 *105:24 43.8371 
4 *105:24 *105:34 49.8443 
5 *105:34 *105:36 0.621429 
6 *105:36 *105:48 43.0086 
7 *105:48 *520:B2 23 
8 *105:36 *105:57 21.1314 
9 *105:57 *105:71 23.41 
10 *105:71 *475:B1 23 
11 *105:71 *105:90 49.3471 
12 *105:90 *487:B2 23 
13 *105:57 *461:A2_N 40.5271 
14 *105:34 *510:B2 23 
15 *105:24 *409:A1 23 
16 *105:12 *425:A1_N 23.6214 
*END

*D_NET *106 0.0102311
*CONN
*I *426:B1 I *D sky130_fd_sc_hd__a2bb2o_1
*I *407:B1 I *D sky130_fd_sc_hd__a22o_1
*I *488:A2_N I *D sky130_fd_sc_hd__o2bb2a_1
*I *474:B1 I *D sky130_fd_sc_hd__a22o_1
*I *521:A2_N I *D sky130_fd_sc_hd__o2bb2a_1
*I *511:A2 I *D sky130_fd_sc_hd__a211o_1
*I *461:B1 I *D sky130_fd_sc_hd__a2bb2o_1
*I *455:X O *D sky130_fd_sc_hd__and3b_1
*CAP
1 *426:B1 0
2 *407:B1 0.000283755
3 *488:A2_N 0
4 *474:B1 0
5 *521:A2_N 0
6 *511:A2 0.000222285
7 *461:B1 0.000189229
8 *455:X 6.0461e-05
9 *106:79 0.00102658
10 *106:41 0.000517073
11 *106:26 0.000708069
12 *106:20 0.000603345
13 *106:14 0.000828244
14 *106:6 0.00125224
15 *407:B1 *407:A1 0.00017761
16 *407:B1 *182:30 5.21127e-05
17 *461:B1 *459:A1 0
18 *461:B1 *164:68 0.000135037
19 *511:A2 *179:30 1.82421e-05
20 *106:6 *176:83 9.84851e-05
21 *106:14 *488:A1_N 1.14154e-05
22 *106:14 *488:B1 8.1796e-05
23 *106:14 *108:10 9.41704e-05
24 *106:14 *176:83 1.83444e-05
25 *106:14 *176:87 9.54312e-05
26 *106:20 *488:A1_N 0.000191068
27 *106:20 *138:12 0
28 *106:20 *164:85 6.07611e-06
29 *106:26 *164:68 1.24376e-05
30 *106:26 *164:79 0.000166079
31 *106:26 *164:85 0.000107651
32 *106:41 *489:A1_N 3.95159e-06
33 *106:79 *444:A 3.21223e-05
34 *106:79 *447:C 0.000191148
35 *106:79 *108:10 0
36 *106:79 *177:76 0
37 *106:79 *177:82 0.00015652
38 *106:79 *178:46 0.000166504
39 *106:79 *182:30 1.83564e-05
40 *106:79 *183:35 0
41 *407:A2 *407:B1 3.17027e-05
42 *461:A2_N *461:B1 5.56279e-05
43 *475:A2 *106:41 2.55642e-05
44 *488:B2 *106:14 2.02872e-05
45 *523:A *511:A2 1.05819e-05
46 *55:36 *407:B1 0.000110922
47 *55:36 *106:79 0.000256776
48 *83:20 *511:A2 8.62876e-05
49 *83:20 *106:41 0.000634621
50 *93:27 *106:79 0.000140669
51 *96:18 *106:14 7.44257e-05
52 *96:18 *106:20 5.94921e-06
53 *96:29 *106:20 0.000359542
54 *96:29 *106:26 0.000163361
55 *96:31 *106:26 8.72173e-05
56 *96:37 *106:41 7.45278e-05
57 *97:8 *106:79 0
58 *97:71 *106:41 0.000191157
59 *99:16 *106:26 3.95159e-06
60 *99:35 *106:20 1.7992e-05
61 *102:10 *106:26 1.01436e-05
62 *105:34 *511:A2 8.62876e-05
63 *105:34 *106:41 0.000257715
*RES
1 *455:X *106:6 24.0979 
2 *106:6 *106:14 8.43071 
3 *106:14 *106:20 22.6021 
4 *106:20 *106:26 20.365 
5 *106:26 *461:B1 26.1693 
6 *106:26 *106:41 23.9486 
7 *106:41 *511:A2 42.2464 
8 *106:41 *521:A2_N 38 
9 *106:20 *474:B1 38 
10 *106:14 *488:A2_N 23 
11 *106:6 *106:79 31.6957 
12 *106:79 *407:B1 42.5779 
13 *106:79 *426:B1 38 
*END

*D_NET *107 0.0170198
*CONN
*I *495:A1 I *D sky130_fd_sc_hd__a211o_1
*I *477:C1 I *D sky130_fd_sc_hd__a211o_1
*I *462:B1 I *D sky130_fd_sc_hd__a311o_1
*I *434:B2 I *D sky130_fd_sc_hd__a32o_1
*I *427:A I *D sky130_fd_sc_hd__or4_1
*I *414:A1_N I *D sky130_fd_sc_hd__o2bb2a_1
*I *511:B1 I *D sky130_fd_sc_hd__a211o_1
*I *428:A1_N I *D sky130_fd_sc_hd__o2bb2a_1
*I *456:Y O *D sky130_fd_sc_hd__nor3_4
*CAP
1 *495:A1 0
2 *477:C1 0
3 *462:B1 0
4 *434:B2 0
5 *427:A 2.34823e-05
6 *414:A1_N 0
7 *511:B1 0.000308034
8 *428:A1_N 0.000198058
9 *456:Y 9.01449e-05
10 *107:121 0.000105495
11 *107:103 0.000707595
12 *107:89 0.00120979
13 *107:79 0.00203104
14 *107:56 0.000553082
15 *107:39 0.00133055
16 *107:37 0.000633859
17 *107:22 0.000508884
18 *107:14 0.00129341
19 *107:8 0.00263702
20 *428:A1_N *173:33 1.37702e-05
21 *428:A1_N *183:10 3.96053e-05
22 *511:B1 *179:30 0.000459621
23 *107:14 *442:B2 1.60633e-05
24 *107:14 *165:8 0
25 *107:14 *178:8 4.83778e-05
26 *107:39 *407:A1 0.000183098
27 *107:39 *181:102 5.67058e-05
28 *107:56 *108:14 0
29 *107:56 *108:24 0.000134677
30 *107:56 *146:93 0
31 *107:79 *437:A 5.29255e-05
32 *107:79 *530:A 5.50049e-05
33 *107:79 *136:8 0.000354127
34 *107:79 *139:10 0.00010018
35 *107:79 *177:6 1.61361e-05
36 *107:79 *177:66 0.000401273
37 *107:79 *178:8 0.000100967
38 *107:89 *475:B2 3.68321e-05
39 *107:89 *493:A1 1.08978e-05
40 *107:89 *494:B 5.56356e-05
41 *107:89 *494:C 0.000100069
42 *107:89 *116:40 0.000131538
43 *107:89 *117:66 1.71761e-05
44 *107:89 *134:18 9.00801e-05
45 *107:89 *143:10 0.000224321
46 *107:89 *168:27 0
47 *107:103 *460:A1 0
48 *107:103 *108:59 2.93138e-05
49 *107:121 *135:10 1.14452e-05
50 *107:121 *139:10 6.58373e-05
51 *107:121 *169:14 4.73585e-05
52 *107:121 *179:16 0
53 carry *107:14 6.10551e-06
54 *407:A2 *511:B1 5.41288e-05
55 *407:A2 *107:39 0.000175809
56 *411:B1 *107:56 0
57 *417:A *107:22 4.42688e-05
58 *425:B1 *107:22 1.94693e-05
59 *427:D *107:39 5.41288e-05
60 *433:A2 *428:A1_N 0.000407208
61 *433:A2 *107:22 2.46345e-05
62 *433:A2 *107:37 5.3304e-05
63 *434:B1 *107:14 1.19077e-05
64 *487:A2 *107:79 5.02857e-05
65 *9:13 *107:14 0.000314842
66 *16:11 *107:14 0
67 *40:16 *107:56 0
68 *59:20 *107:56 0
69 *61:33 *428:A1_N 1.4649e-05
70 *63:10 *107:39 9.62666e-05
71 *65:10 *107:56 0.000140958
72 *67:18 *107:56 2.88255e-05
73 *70:8 *427:A 0
74 *70:12 *428:A1_N 4.6318e-06
75 *70:12 *107:22 8.16356e-05
76 *71:12 *107:22 6.57448e-05
77 *72:10 *107:22 3.70187e-05
78 *72:18 *107:22 1.62615e-05
79 *74:8 *428:A1_N 2.71291e-05
80 *76:21 *107:14 7.15126e-05
81 *82:10 *428:A1_N 0
82 *82:10 *107:37 7.15126e-05
83 *90:86 *107:103 0.000515943
84 *92:16 *107:14 0
85 *92:28 *107:14 4.56219e-05
86 *92:75 *107:103 0
87 *93:27 *107:56 0
88 *103:16 *107:103 3.36312e-06
89 *105:71 *107:103 0
90 *105:90 *107:79 9.91798e-05
*RES
1 *456:Y *107:8 39.0979 
2 *107:8 *107:14 36.3771 
3 *107:14 *107:22 19.5571 
4 *107:22 *428:A1_N 43.5877 
5 *107:22 *107:37 17.5271 
6 *107:37 *107:39 10.15 
7 *107:39 *511:B1 30.3121 
8 *107:39 *107:56 38.9123 
9 *107:56 *414:A1_N 23 
10 *107:37 *427:A 23.4971 
11 *107:14 *434:B2 23 
12 *107:8 *107:79 42.8607 
13 *107:79 *107:89 25.7714 
14 *107:89 *107:103 40.4102 
15 *107:103 *462:B1 23 
16 *107:89 *477:C1 38 
17 *107:79 *107:121 32.2579 
18 *107:121 *495:A1 23 
*END

*D_NET *108 0.0132653
*CONN
*I *479:A1 I *D sky130_fd_sc_hd__o22a_1
*I *464:B2 I *D sky130_fd_sc_hd__o32a_1
*I *409:C1 I *D sky130_fd_sc_hd__o211a_1
*I *502:B1 I *D sky130_fd_sc_hd__a21o_1
*I *519:B1 I *D sky130_fd_sc_hd__a31o_1
*I *457:X O *D sky130_fd_sc_hd__or3_2
*CAP
1 *479:A1 0.000249043
2 *464:B2 0.000281467
3 *409:C1 0.000113013
4 *502:B1 3.47052e-05
5 *519:B1 0
6 *457:X 0.000279417
7 *108:59 0.00247428
8 *108:32 0.000123375
9 *108:24 0.000689112
10 *108:14 0.00149908
11 *108:10 0.00307823
12 *464:B2 *109:10 4.21594e-06
13 *464:B2 *152:12 0
14 *479:A1 *479:B2 8.03858e-05
15 *479:A1 *123:10 4.08641e-05
16 *479:A1 *126:12 0.00012239
17 *479:A1 *152:12 0
18 *502:B1 *502:A2 1.11037e-05
19 *108:14 *447:C 0
20 *108:14 *153:18 5.94125e-05
21 *108:14 *153:24 0.000216721
22 *108:14 *178:46 0
23 *108:14 *179:22 0
24 *108:14 *179:30 0
25 *108:14 *181:102 5.51325e-05
26 *108:14 *182:51 0.000246757
27 *108:24 *502:A2 9.84794e-05
28 *108:24 *146:44 4.46353e-05
29 *108:24 *146:93 8.58823e-05
30 *108:24 *147:37 4.9662e-05
31 *108:32 *502:A1 2.17956e-05
32 *108:32 *145:24 0.000158796
33 *108:32 *146:44 1.83408e-05
34 *108:32 *148:14 1.36714e-05
35 *409:A2 *409:C1 7.8438e-05
36 *411:B1 *108:24 0
37 *59:10 *108:24 0.000855154
38 *59:10 *108:32 5.56356e-05
39 *90:35 *409:C1 0.000149672
40 *90:35 *108:24 0.000145784
41 *91:8 *108:14 0.000169683
42 *92:66 *464:B2 4.97925e-05
43 *92:66 *479:A1 0.000180036
44 *92:75 *464:B2 0
45 *93:14 *108:10 0
46 *93:14 *108:14 0
47 *93:27 *108:14 0.000321517
48 *93:54 *409:C1 1.03836e-05
49 *97:44 *108:14 7.55595e-05
50 *105:24 *108:14 0.000345304
51 *105:34 *409:C1 4.17736e-05
52 *105:34 *108:24 0.000269781
53 *105:90 *108:10 0.000108681
54 *106:14 *108:10 9.41704e-05
55 *106:79 *108:10 0
56 *107:56 *108:14 0
57 *107:56 *108:24 0.000134677
58 *107:103 *108:59 2.93138e-05
*RES
1 *457:X *108:10 41.5318 
2 *108:10 *108:14 34.3368 
3 *108:14 *108:24 46.3436 
4 *108:24 *108:32 32.8793 
5 *108:32 *519:B1 23 
6 *108:24 *502:B1 23.8493 
7 *108:14 *409:C1 26.0243 
8 *108:10 *108:59 19.92 
9 *108:59 *464:B2 43.2511 
10 *108:59 *479:A1 43.9554 
*END

*D_NET *109 0.000489678
*CONN
*I *464:A1 I *D sky130_fd_sc_hd__o32a_1
*I *458:X O *D sky130_fd_sc_hd__o21a_1
*CAP
1 *464:A1 0
2 *458:X 0.000192641
3 *109:10 0.000192641
4 *109:10 *152:12 0
5 *464:B2 *109:10 4.21594e-06
6 *92:75 *109:10 0
7 *92:81 *109:10 0
8 *101:39 *109:10 0.00010018
*RES
1 *458:X *109:10 41.3557 
2 *109:10 *464:A1 38 
*END

*D_NET *110 0.000575877
*CONN
*I *460:B1_N I *D sky130_fd_sc_hd__a21bo_1
*I *459:X O *D sky130_fd_sc_hd__o22a_1
*CAP
1 *460:B1_N 0.000122413
2 *459:X 3.72237e-05
3 *110:8 0.000159637
4 *460:B1_N *166:16 5.3304e-05
5 *110:8 *166:10 8.62783e-05
6 *460:A2 *460:B1_N 2.98648e-05
7 *105:71 *110:8 8.71559e-05
*RES
1 *459:X *110:8 39.2014 
2 *110:8 *460:B1_N 39.5743 
*END

*D_NET *111 0.000837411
*CONN
*I *462:C1 I *D sky130_fd_sc_hd__a311o_1
*I *460:X O *D sky130_fd_sc_hd__a21bo_1
*CAP
1 *462:C1 0.000106349
2 *460:X 0.000153695
3 *111:10 0.000260044
4 *462:C1 *112:10 6.15346e-05
5 *111:10 *166:16 9.92345e-05
6 *102:32 *111:10 0.000114074
7 *103:16 *462:C1 4.24796e-05
*RES
1 *460:X *111:10 40.6514 
2 *111:10 *462:C1 40.0714 
*END

*D_NET *112 0.00102437
*CONN
*I *464:A2 I *D sky130_fd_sc_hd__o32a_1
*I *461:X O *D sky130_fd_sc_hd__a2bb2o_1
*CAP
1 *464:A2 0
2 *461:X 0.000324946
3 *112:10 0.000324946
4 *112:10 *464:A3 0.000102093
5 *112:10 *464:B1 0
6 *112:10 *167:10 0.000141677
7 *462:A1 *112:10 4.27352e-05
8 *462:C1 *112:10 6.15346e-05
9 *103:16 *112:10 2.64363e-05
*RES
1 *461:X *112:10 29.8564 
2 *112:10 *464:A2 23 
*END

*D_NET *113 0.000380308
*CONN
*I *464:A3 I *D sky130_fd_sc_hd__o32a_1
*I *462:X O *D sky130_fd_sc_hd__a311o_1
*CAP
1 *464:A3 0.000139108
2 *462:X 0.000139108
3 *462:A1 *464:A3 0
4 *112:10 *464:A3 0.000102093
*RES
1 *462:X *464:A3 49.0243 
*END

*D_NET *114 0.000243992
*CONN
*I *464:B1 I *D sky130_fd_sc_hd__o32a_1
*I *463:X O *D sky130_fd_sc_hd__xor2_1
*CAP
1 *464:B1 0.000121996
2 *463:X 0.000121996
3 *112:10 *464:B1 0
*RES
1 *463:X *464:B1 48.0714 
*END

*D_NET *115 0.00250918
*CONN
*I *467:A I *D sky130_fd_sc_hd__nand2_2
*I *485:A1 I *D sky130_fd_sc_hd__a21bo_1
*I *477:A2 I *D sky130_fd_sc_hd__a211o_1
*I *465:X O *D sky130_fd_sc_hd__or2_1
*CAP
1 *467:A 8.88808e-05
2 *485:A1 0
3 *477:A2 0
4 *465:X 0.00010452
5 *115:22 0.000284651
6 *115:12 0.000498113
7 *115:8 0.000229101
8 *467:A *116:23 9.43689e-05
9 *467:A *118:37 4.3198e-05
10 *467:A *134:18 9.88259e-05
11 *115:8 *116:8 0
12 *115:8 *122:16 5.94125e-05
13 *115:8 *152:12 3.88504e-05
14 *115:12 *485:B1_N 2.4754e-05
15 *115:12 *117:10 8.47306e-05
16 *115:12 *118:37 0.000405725
17 *115:12 *122:29 4.34973e-05
18 *115:22 *477:B1 3.23857e-06
19 *115:22 *116:8 2.71291e-05
20 *115:22 *122:16 0
21 *115:22 *126:12 0.000233367
22 *115:22 *127:6 0.000146822
*RES
1 *465:X *115:8 39.9057 
2 *115:8 *115:12 19.4329 
3 *115:12 *115:22 35.9864 
4 *115:22 *477:A2 23 
5 *115:12 *485:A1 23 
6 *115:12 *467:A 25.5271 
*END

*D_NET *116 0.00260846
*CONN
*I *476:A2 I *D sky130_fd_sc_hd__o21ai_1
*I *467:B I *D sky130_fd_sc_hd__nand2_2
*I *485:B1_N I *D sky130_fd_sc_hd__a21bo_1
*I *466:Y O *D sky130_fd_sc_hd__nand2_1
*CAP
1 *476:A2 0
2 *467:B 2.67077e-05
3 *485:B1_N 4.42076e-05
4 *466:Y 0.000127157
5 *116:40 0.000247928
6 *116:23 0.000405023
7 *116:10 0.000174595
8 *116:8 0.000127157
9 *485:B1_N *472:A 0
10 *485:B1_N *117:10 0.00010018
11 *485:B1_N *118:37 5.50049e-05
12 *116:8 *117:57 0
13 *116:8 *118:37 5.94125e-05
14 *116:8 *122:16 0
15 *116:8 *122:29 8.62876e-05
16 *116:23 *494:A 1.76557e-05
17 *116:23 *117:6 0.00014263
18 *116:23 *117:10 0.000258231
19 *116:23 *117:66 1.32314e-05
20 *116:23 *118:37 0.000139982
21 *116:23 *134:18 8.39585e-06
22 *116:40 *476:B1 2.34172e-05
23 *116:40 *494:A 2.02872e-05
24 *116:40 *494:B 8.10897e-05
25 *116:40 *494:C 5.3304e-05
26 *116:40 *117:57 0
27 *116:40 *117:66 1.71981e-05
28 *116:40 *126:12 9.88259e-05
29 *116:40 *168:27 2.76611e-06
30 *467:A *116:23 9.43689e-05
31 *107:89 *116:40 0.000131538
32 *115:8 *116:8 0
33 *115:12 *485:B1_N 2.4754e-05
34 *115:22 *116:8 2.71291e-05
*RES
1 *466:Y *116:8 40.61 
2 *116:8 *116:10 15 
3 *116:10 *485:B1_N 24.595 
4 *116:10 *116:23 4.93 
5 *116:23 *467:B 23.4971 
6 *116:23 *116:40 34.5779 
7 *116:40 *476:A2 23 
*END

*D_NET *117 0.00644998
*CONN
*I *493:A1 I *D sky130_fd_sc_hd__a31o_1
*I *475:B2 I *D sky130_fd_sc_hd__o22a_1
*I *504:A1 I *D sky130_fd_sc_hd__a311o_1
*I *472:A I *D sky130_fd_sc_hd__nand2_1
*I *473:A I *D sky130_fd_sc_hd__or2_1
*I *469:A I *D sky130_fd_sc_hd__xnor2_1
*I *467:Y O *D sky130_fd_sc_hd__nand2_2
*CAP
1 *493:A1 0.000239277
2 *475:B2 0.000233605
3 *504:A1 0
4 *472:A 3.64574e-05
5 *473:A 5.37949e-05
6 *469:A 0.000224828
7 *467:Y 0
8 *117:66 0.000671396
9 *117:57 0.000196175
10 *117:16 0.000592272
11 *117:10 0.00083934
12 *117:6 0.000778602
13 *117:4 0.000291707
14 *469:A *479:A2 4.94192e-05
15 *469:A *479:B2 3.86122e-05
16 *469:A *126:12 2.4754e-05
17 *469:A *168:6 0.000228001
18 *469:A *168:27 9.04966e-05
19 *472:A *118:37 9.84851e-05
20 *473:A *118:14 0.000102417
21 *473:A *121:19 0
22 *475:B2 *460:A1 3.64246e-05
23 *475:B2 *175:10 9.03576e-05
24 *475:B2 *175:12 4.69088e-05
25 *493:A1 *494:B 0
26 *493:A1 *504:A3 4.61808e-06
27 *493:A1 *504:C1 2.94793e-05
28 *493:A1 *175:10 0.000117155
29 *117:10 *118:37 7.43025e-06
30 *117:16 *472:B 5.3304e-05
31 *117:16 *118:14 0.000281468
32 *117:16 *118:22 2.32101e-05
33 *117:16 *118:37 1.56665e-05
34 *117:16 *121:19 0
35 *117:57 *494:B 1.63009e-05
36 *117:57 *122:29 0
37 *117:57 *140:10 6.15872e-05
38 *117:66 *494:B 0.000139692
39 *117:66 *143:10 5.56279e-05
40 *485:B1_N *472:A 0
41 *485:B1_N *117:10 0.00010018
42 *107:89 *475:B2 3.68321e-05
43 *107:89 *493:A1 1.08978e-05
44 *107:89 *117:66 1.71761e-05
45 *115:12 *117:10 8.47306e-05
46 *116:8 *117:57 0
47 *116:23 *117:6 0.00014263
48 *116:23 *117:10 0.000258231
49 *116:23 *117:66 1.32314e-05
50 *116:40 *117:57 0
51 *116:40 *117:66 1.71981e-05
*RES
1 *467:Y *117:4 23 
2 *117:4 *117:6 1.57429 
3 *117:6 *117:10 7.66429 
4 *117:10 *117:16 21.3696 
5 *117:16 *469:A 43.8932 
6 *117:16 *473:A 39.3775 
7 *117:10 *472:A 24.595 
8 *117:6 *117:57 33.3143 
9 *117:57 *504:A1 23 
10 *117:4 *117:66 18.0036 
11 *117:66 *475:B2 42.7229 
12 *117:66 *493:A1 42.4329 
*END

*D_NET *118 0.00507595
*CONN
*I *485:A2 I *D sky130_fd_sc_hd__a21bo_1
*I *469:B I *D sky130_fd_sc_hd__xnor2_1
*I *468:Y O *D sky130_fd_sc_hd__o21ai_1
*CAP
1 *485:A2 0
2 *469:B 0
3 *468:Y 0
4 *118:37 0.000219596
5 *118:22 0.000400909
6 *118:14 0.00119164
7 *118:6 0.000571132
8 *118:14 *121:8 0
9 *118:14 *121:19 0
10 *118:14 *152:12 0.0004869
11 *118:22 *472:B 0.000270682
12 *118:22 *121:19 7.55729e-05
13 *118:22 *121:34 7.75329e-06
14 *118:37 *122:6 0.000181125
15 *118:37 *122:16 0
16 *118:37 *122:29 0.00021477
17 result[0] *118:14 7.20154e-05
18 *467:A *118:37 4.3198e-05
19 *471:A1 *118:14 8.14827e-05
20 *472:A *118:37 9.84851e-05
21 *473:A *118:14 0.000102417
22 *485:B1_N *118:37 5.50049e-05
23 *101:16 *118:14 7.03766e-05
24 *115:12 *118:37 0.000405725
25 *116:8 *118:37 5.94125e-05
26 *116:23 *118:37 0.000139982
27 *117:10 *118:37 7.43025e-06
28 *117:16 *118:14 0.000281468
29 *117:16 *118:22 2.32101e-05
30 *117:16 *118:37 1.56665e-05
*RES
1 *468:Y *118:6 38 
2 *118:6 *118:14 29.645 
3 *118:14 *118:22 38.2236 
4 *118:22 *469:B 23 
5 *118:14 *118:37 37.8093 
6 *118:37 *485:A2 23 
*END

*D_NET *119 0.000597184
*CONN
*I *479:A2 I *D sky130_fd_sc_hd__o22a_1
*I *469:Y O *D sky130_fd_sc_hd__xnor2_1
*CAP
1 *479:A2 7.01723e-05
2 *469:Y 7.01723e-05
3 *479:A2 *126:12 0.000139346
4 *479:A2 *168:27 0.000268074
5 *469:A *479:A2 4.94192e-05
*RES
1 *469:Y *479:A2 49.0036 
*END

*D_NET *120 0.000216948
*CONN
*I *471:B1 I *D sky130_fd_sc_hd__a21o_1
*I *470:X O *D sky130_fd_sc_hd__and2b_1
*CAP
1 *471:B1 0.000106473
2 *470:X 0.000106473
3 *102:32 *471:B1 4.00259e-06
*RES
1 *470:X *471:B1 48.0714 
*END

*D_NET *121 0.00478128
*CONN
*I *493:A2 I *D sky130_fd_sc_hd__a31o_1
*I *504:A2 I *D sky130_fd_sc_hd__a311o_1
*I *472:B I *D sky130_fd_sc_hd__nand2_1
*I *473:B I *D sky130_fd_sc_hd__or2_1
*I *471:X O *D sky130_fd_sc_hd__a21o_1
*CAP
1 *493:A2 0.000185524
2 *504:A2 2.07933e-05
3 *472:B 0.00010378
4 *473:B 6.17727e-05
5 *471:X 0.000137587
6 *121:34 0.000793181
7 *121:19 0.000990606
8 *121:8 0.000499322
9 *473:B *167:27 0.00014196
10 *493:A2 *499:A1 1.11037e-05
11 *493:A2 *504:A3 2.12303e-05
12 *493:A2 *504:C1 3.78939e-05
13 *493:A2 *132:20 0.000355009
14 *493:A2 *141:41 2.64616e-05
15 *493:A2 *142:14 5.3304e-05
16 *504:A2 *504:A3 1.12349e-05
17 *121:8 *168:14 0
18 *121:19 *168:14 0
19 *121:34 *465:A 0.000187129
20 *121:34 *465:B 1.56665e-05
21 *121:34 *504:A3 2.07484e-05
22 *121:34 *132:20 6.50354e-05
23 *121:34 *152:8 0.000526313
24 *121:34 *152:12 0
25 *121:34 *155:18 5.3304e-05
26 *121:34 *175:67 5.50049e-05
27 result[1] *121:8 0
28 *473:A *121:19 0
29 *117:16 *472:B 5.3304e-05
30 *117:16 *121:19 0
31 *118:14 *121:8 0
32 *118:14 *121:19 0
33 *118:22 *472:B 0.000270682
34 *118:22 *121:19 7.55729e-05
35 *118:22 *121:34 7.75329e-06
*RES
1 *471:X *121:8 40.2579 
2 *121:8 *473:B 39.5743 
3 *121:8 *121:19 5.77929 
4 *121:19 *472:B 41.0036 
5 *121:19 *121:34 29.065 
6 *121:34 *504:A2 23.4971 
7 *121:34 *493:A2 27.9507 
*END

*D_NET *122 0.0028463
*CONN
*I *491:B1 I *D sky130_fd_sc_hd__o211a_1
*I *478:A2 I *D sky130_fd_sc_hd__a31o_1
*I *472:Y O *D sky130_fd_sc_hd__nand2_1
*CAP
1 *491:B1 0
2 *478:A2 0
3 *472:Y 0.000141989
4 *122:29 0.000449525
5 *122:16 0.000253066
6 *122:6 0.00084458
7 *122:16 *123:10 1.14452e-05
8 *122:16 *152:12 6.2002e-05
9 *122:29 *155:18 0.000243578
10 *122:29 *175:67 0.000243578
11 *92:66 *122:16 1.14452e-05
12 *115:8 *122:16 5.94125e-05
13 *115:12 *122:29 4.34973e-05
14 *115:22 *122:16 0
15 *116:8 *122:16 0
16 *116:8 *122:29 8.62876e-05
17 *117:57 *122:29 0
18 *118:37 *122:6 0.000181125
19 *118:37 *122:16 0
20 *118:37 *122:29 0.00021477
*RES
1 *472:Y *122:6 25.0507 
2 *122:6 *122:16 34.785 
3 *122:16 *478:A2 23 
4 *122:6 *122:29 38.555 
5 *122:29 *491:B1 23 
*END

*D_NET *123 0.000572211
*CONN
*I *478:A3 I *D sky130_fd_sc_hd__a31o_1
*I *473:X O *D sky130_fd_sc_hd__or2_1
*CAP
1 *478:A3 0
2 *473:X 0.000194317
3 *123:10 0.000194317
4 *123:10 *152:12 6.33614e-05
5 *123:10 *167:27 5.2894e-05
6 *479:A1 *123:10 4.08641e-05
7 *92:66 *123:10 1.50123e-05
8 *122:16 *123:10 1.14452e-05
*RES
1 *473:X *123:10 41.48 
2 *123:10 *478:A3 38 
*END

*D_NET *124 0.0017212
*CONN
*I *477:B1 I *D sky130_fd_sc_hd__a211o_1
*I *474:X O *D sky130_fd_sc_hd__a22o_1
*CAP
1 *477:B1 0.000269615
2 *474:X 0.000218763
3 *124:8 0.000488377
4 *477:B1 *476:B1 7.62299e-05
5 *477:B1 *488:A1_N 0.000137651
6 *477:B1 *126:12 2.94066e-05
7 *124:8 *460:A1 0
8 *124:8 *125:8 5.21024e-05
9 *124:8 *169:14 9.64737e-05
10 *124:8 *175:12 7.76364e-06
11 *475:A2 *124:8 0.000109443
12 *476:A1 *477:B1 0.000221997
13 *83:20 *124:8 1.01436e-05
14 *115:22 *477:B1 3.23857e-06
*RES
1 *474:X *124:8 42.3707 
2 *124:8 *477:B1 43.4064 
*END

*D_NET *125 0.000988483
*CONN
*I *476:B1 I *D sky130_fd_sc_hd__o21ai_1
*I *475:X O *D sky130_fd_sc_hd__o22a_1
*CAP
1 *476:B1 0.000134338
2 *475:X 0.000102223
3 *125:8 0.000236561
4 *476:B1 *126:12 5.56356e-05
5 *125:8 *175:10 8.4047e-05
6 *125:8 *175:12 8.62783e-05
7 *476:A1 *476:B1 0.000137651
8 *477:B1 *476:B1 7.62299e-05
9 *116:40 *476:B1 2.34172e-05
10 *124:8 *125:8 5.21024e-05
*RES
1 *475:X *125:8 40.2579 
2 *125:8 *476:B1 41.6975 
*END

*D_NET *126 0.00256302
*CONN
*I *479:B1 I *D sky130_fd_sc_hd__o22a_1
*I *476:Y O *D sky130_fd_sc_hd__o21ai_1
*CAP
1 *479:B1 0
2 *476:Y 0.000412344
3 *126:12 0.000412344
4 *126:12 *479:B2 9.67135e-05
5 *126:12 *127:6 0.000270861
6 *126:12 *168:27 0.00064057
7 *469:A *126:12 2.4754e-05
8 *476:B1 *126:12 5.56356e-05
9 *477:B1 *126:12 2.94066e-05
10 *479:A1 *126:12 0.00012239
11 *479:A2 *126:12 0.000139346
12 *90:86 *126:12 2.64616e-05
13 *115:22 *126:12 0.000233367
14 *116:40 *126:12 9.88259e-05
*RES
1 *476:Y *126:12 37.6243 
2 *126:12 *479:B1 23 
*END

*D_NET *127 0.00077508
*CONN
*I *478:B1 I *D sky130_fd_sc_hd__a31o_1
*I *477:X O *D sky130_fd_sc_hd__a211o_1
*CAP
1 *478:B1 0
2 *477:X 0.000178699
3 *127:6 0.000178699
4 *115:22 *127:6 0.000146822
5 *126:12 *127:6 0.000270861
*RES
1 *477:X *127:6 27.9093 
2 *127:6 *478:B1 23 
*END

*D_NET *128 0.000534794
*CONN
*I *479:B2 I *D sky130_fd_sc_hd__o22a_1
*I *478:X O *D sky130_fd_sc_hd__a31o_1
*CAP
1 *479:B2 0.000159542
2 *478:X 0.000159542
3 *469:A *479:B2 3.86122e-05
4 *479:A1 *479:B2 8.03858e-05
5 *126:12 *479:B2 9.67135e-05
*RES
1 *478:X *479:B2 49.045 
*END

*D_NET *129 0.00167652
*CONN
*I *483:A I *D sky130_fd_sc_hd__nor2_1
*I *499:B1 I *D sky130_fd_sc_hd__a21oi_1
*I *480:X O *D sky130_fd_sc_hd__and2_1
*CAP
1 *483:A 0
2 *499:B1 0.000115373
3 *480:X 4.85943e-05
4 *129:21 0.000197261
5 *129:6 0.000361228
6 *499:B1 *495:C1 0.000164528
7 *499:B1 *132:12 9.88574e-06
8 *129:6 *132:12 1.39431e-05
9 *129:6 *179:57 2.93845e-05
10 *129:21 *556:A 0
11 *129:21 *132:8 8.62876e-05
12 *129:21 *133:23 5.50049e-05
13 *129:21 *135:10 0
14 *129:21 *139:10 1.83667e-05
15 *129:21 *179:8 2.70366e-05
16 *129:21 *179:10 3.71611e-05
17 *129:21 *179:16 3.3123e-05
18 *493:B1 *499:B1 0.000351519
19 *493:B1 *129:6 0.000127821
*RES
1 *480:X *129:6 24.5743 
2 *129:6 *499:B1 26.9564 
3 *129:6 *129:21 34.2879 
4 *129:21 *483:A 23 
*END

*D_NET *130 0.000770259
*CONN
*I *488:B1 I *D sky130_fd_sc_hd__o2bb2a_1
*I *481:Y O *D sky130_fd_sc_hd__nand2_1
*CAP
1 *488:B1 6.18077e-05
2 *481:Y 0.000249234
3 *130:8 0.000311042
4 *130:8 *487:A1 0
5 *130:8 *131:27 0
6 *93:14 *130:8 0
7 *105:90 *130:8 6.63801e-05
8 *106:14 *488:B1 8.1796e-05
*RES
1 *481:Y *130:8 42.7229 
2 *130:8 *488:B1 39.5743 
*END

*D_NET *131 0.00204716
*CONN
*I *487:A3 I *D sky130_fd_sc_hd__o32a_1
*I *483:B I *D sky130_fd_sc_hd__nor2_1
*I *482:Y O *D sky130_fd_sc_hd__nor2_1
*CAP
1 *487:A3 0
2 *483:B 0
3 *482:Y 0
4 *131:27 0.000221859
5 *131:14 0.000339948
6 *131:4 0.000561807
7 *131:14 *482:A 5.25848e-05
8 *131:14 *482:B 2.65879e-05
9 *131:14 *484:A 7.42621e-05
10 *131:14 *503:A_N 9.84794e-05
11 *131:14 *133:23 0.000356724
12 *131:14 *156:8 2.46345e-05
13 *131:14 *156:12 0.000136486
14 *131:14 *179:8 0
15 *131:14 *179:10 0
16 *131:14 *179:84 5.41385e-05
17 *131:27 *487:A1 6.07611e-06
18 *131:27 *133:12 9.35752e-05
19 *131:27 *156:12 0
20 *130:8 *131:27 0
*RES
1 *482:Y *131:4 23 
2 *131:4 *131:14 38.265 
3 *131:14 *483:B 23 
4 *131:4 *131:27 34.2879 
5 *131:27 *487:A3 23 
*END

*D_NET *132 0.00396924
*CONN
*I *499:A1 I *D sky130_fd_sc_hd__a21oi_1
*I *491:C1 I *D sky130_fd_sc_hd__o211a_1
*I *483:Y O *D sky130_fd_sc_hd__nor2_1
*CAP
1 *499:A1 0.000122036
2 *491:C1 0
3 *483:Y 3.89734e-05
4 *132:20 0.000689198
5 *132:12 0.00129696
6 *132:8 0.000524703
7 *499:A1 *495:C1 6.17437e-06
8 *132:8 *179:10 8.62876e-05
9 *132:12 *495:C1 0.000214036
10 *132:20 *152:8 0.000136738
11 *132:20 *175:67 0.000169674
12 *493:A2 *499:A1 1.11037e-05
13 *493:A2 *132:20 0.000355009
14 *493:B1 *499:A1 0.000139487
15 *493:B1 *132:20 3.70553e-06
16 *499:B1 *132:12 9.88574e-06
17 *121:34 *132:20 6.50354e-05
18 *129:6 *132:12 1.39431e-05
19 *129:21 *132:8 8.62876e-05
*RES
1 *483:Y *132:8 39.2014 
2 *132:8 *132:12 21.815 
3 *132:12 *132:20 40.5021 
4 *132:20 *491:C1 23 
5 *132:12 *499:A1 26.4179 
*END

*D_NET *133 0.00532093
*CONN
*I *486:A I *D sky130_fd_sc_hd__xnor2_1
*I *493:A3 I *D sky130_fd_sc_hd__a31o_1
*I *504:A3 I *D sky130_fd_sc_hd__a311o_1
*I *492:B I *D sky130_fd_sc_hd__and3b_1
*I *487:B1 I *D sky130_fd_sc_hd__o32a_1
*I *484:Y O *D sky130_fd_sc_hd__xnor2_2
*CAP
1 *486:A 0
2 *493:A3 0
3 *504:A3 0.000385207
4 *492:B 4.3417e-05
5 *487:B1 0
6 *484:Y 6.40943e-05
7 *133:40 0.000463544
8 *133:29 0.000350852
9 *133:23 0.00083119
10 *133:12 0.000274441
11 *133:6 0.000940628
12 *492:B *141:12 5.56279e-05
13 *504:A3 *465:B 1.37232e-05
14 *504:A3 *504:C1 0.00019888
15 *504:A3 *141:41 2.93335e-05
16 *504:A3 *142:14 8.46461e-05
17 *133:12 *156:12 0
18 *133:12 *178:102 0
19 *133:23 *484:A 1.5769e-05
20 *133:23 *503:A_N 2.02872e-05
21 *133:23 *135:10 2.38288e-05
22 *133:23 *151:8 0.000530622
23 *133:29 *141:12 5.3304e-05
24 *133:29 *151:8 4.04303e-05
25 *133:29 *175:57 0.000150119
26 *133:40 *504:C1 0.000133649
27 *133:40 *141:12 5.41986e-05
28 *493:A1 *504:A3 4.61808e-06
29 *493:A2 *504:A3 2.12303e-05
30 *504:A2 *504:A3 1.12349e-05
31 *121:34 *504:A3 2.07484e-05
32 *129:21 *133:23 5.50049e-05
33 *131:14 *133:23 0.000356724
34 *131:27 *133:12 9.35752e-05
*RES
1 *484:Y *133:6 24.0979 
2 *133:6 *133:12 35.4271 
3 *133:12 *487:B1 23 
4 *133:6 *133:23 14.355 
5 *133:23 *133:29 4.82643 
6 *133:29 *492:B 23.6214 
7 *133:29 *133:40 16.9057 
8 *133:40 *504:A3 44.0071 
9 *133:40 *493:A3 38 
10 *133:23 *486:A 23 
*END

*D_NET *134 0.00223093
*CONN
*I *486:B I *D sky130_fd_sc_hd__xnor2_1
*I *499:A2 I *D sky130_fd_sc_hd__a21oi_1
*I *485:X O *D sky130_fd_sc_hd__a21bo_1
*CAP
1 *486:B 9.84502e-05
2 *499:A2 0
3 *485:X 0.000496934
4 *134:18 0.000595384
5 *486:B *556:A 0
6 *486:B *143:10 3.92407e-05
7 *486:B *147:12 1.02387e-05
8 *486:B *175:10 0.00021197
9 *134:18 *494:A 0.000137368
10 *134:18 *494:C 0.000119565
11 *134:18 *143:10 0.000163361
12 *134:18 *175:10 0.000161121
13 *467:A *134:18 9.88259e-05
14 *107:89 *134:18 9.00801e-05
15 *116:23 *134:18 8.39585e-06
*RES
1 *485:X *134:18 47.8807 
2 *134:18 *499:A2 38 
3 *134:18 *486:B 40.9621 
*END

*D_NET *135 0.000530467
*CONN
*I *495:A2 I *D sky130_fd_sc_hd__a211o_1
*I *486:Y O *D sky130_fd_sc_hd__xnor2_1
*CAP
1 *495:A2 0
2 *486:Y 0.0002055
3 *135:10 0.0002055
4 *135:10 *556:A 7.81176e-05
5 *135:10 *169:14 6.07611e-06
6 *107:121 *135:10 1.14452e-05
7 *129:21 *135:10 0
8 *133:23 *135:10 2.38288e-05
*RES
1 *486:Y *135:10 41.3557 
2 *135:10 *495:A2 38 
*END

*D_NET *136 0.000716173
*CONN
*I *490:A I *D sky130_fd_sc_hd__nand3_1
*I *487:X O *D sky130_fd_sc_hd__o32a_1
*CAP
1 *490:A 0
2 *487:X 0.000181023
3 *136:8 0.000181023
4 *107:79 *136:8 0.000354127
*RES
1 *487:X *136:8 27.4536 
2 *136:8 *490:A 23 
*END

*D_NET *137 0.000677647
*CONN
*I *490:B I *D sky130_fd_sc_hd__nand3_1
*I *488:X O *D sky130_fd_sc_hd__o2bb2a_1
*CAP
1 *490:B 0
2 *488:X 0.000174207
3 *137:10 0.000174207
4 *137:10 *138:12 8.51329e-05
5 *137:10 *179:16 0.000169674
6 *96:18 *137:10 7.44257e-05
*RES
1 *488:X *137:10 41.8321 
2 *137:10 *490:B 38 
*END

*D_NET *138 0.00274704
*CONN
*I *490:C I *D sky130_fd_sc_hd__nand3_1
*I *489:X O *D sky130_fd_sc_hd__o2bb2a_1
*CAP
1 *490:C 0
2 *489:X 7.5691e-05
3 *138:12 0.00074693
4 *138:8 0.000822621
5 *138:8 *489:A1_N 2.4754e-05
6 *138:12 *169:14 0
7 *138:12 *179:16 0.000240905
8 *138:12 *179:22 0.000183823
9 *91:22 *138:8 5.50049e-05
10 *91:22 *138:12 0.000138727
11 *96:29 *138:12 0
12 *96:37 *138:12 0
13 *99:16 *138:12 8.4047e-05
14 *99:35 *138:12 0.000244526
15 *102:10 *138:12 4.48835e-05
16 *106:20 *138:12 0
17 *137:10 *138:12 8.51329e-05
*RES
1 *489:X *138:8 39.0979 
2 *138:8 *138:12 31.3436 
3 *138:12 *490:C 23 
*END

*D_NET *139 0.000510697
*CONN
*I *495:B1 I *D sky130_fd_sc_hd__a211o_1
*I *490:Y O *D sky130_fd_sc_hd__nand3_1
*CAP
1 *495:B1 0
2 *490:Y 0.000163156
3 *139:10 0.000163156
4 *107:79 *139:10 0.00010018
5 *107:121 *139:10 6.58373e-05
6 *129:21 *139:10 1.83667e-05
*RES
1 *490:Y *139:10 41.0036 
2 *139:10 *495:B1 38 
*END

*D_NET *140 0.00131973
*CONN
*I *494:A I *D sky130_fd_sc_hd__nor3_1
*I *491:X O *D sky130_fd_sc_hd__o211a_1
*CAP
1 *494:A 5.04732e-05
2 *491:X 0.000318843
3 *140:10 0.000369316
4 *494:A *494:C 5.56356e-05
5 *140:10 *492:A_N 3.08948e-05
6 *140:10 *494:B 0.000157378
7 *140:10 *141:12 7.01529e-05
8 *140:10 *141:41 2.11066e-05
9 *140:10 *175:67 9.03364e-06
10 *116:23 *494:A 1.76557e-05
11 *116:40 *494:A 2.02872e-05
12 *117:57 *140:10 6.15872e-05
13 *134:18 *494:A 0.000137368
*RES
1 *491:X *140:10 43.4686 
2 *140:10 *494:A 39.5743 
*END

*D_NET *141 0.00235324
*CONN
*I *504:B1 I *D sky130_fd_sc_hd__a311o_1
*I *494:B I *D sky130_fd_sc_hd__nor3_1
*I *492:X O *D sky130_fd_sc_hd__and3b_1
*CAP
1 *504:B1 0
2 *494:B 0.000275589
3 *492:X 0.000216505
4 *141:41 0.000173054
5 *141:12 0.000665148
6 *494:B *494:C 1.41129e-05
7 *494:B *142:14 0.000150556
8 *141:12 *504:C1 6.22448e-06
9 *141:12 *142:14 4.40333e-05
10 *141:12 *175:57 2.93985e-05
11 *141:12 *175:67 1.83408e-05
12 *492:B *141:12 5.56279e-05
13 *493:A1 *494:B 0
14 *493:A2 *141:41 2.64616e-05
15 *504:A3 *141:41 2.93335e-05
16 *107:89 *494:B 5.56356e-05
17 *116:40 *494:B 8.10897e-05
18 *117:57 *494:B 1.63009e-05
19 *117:66 *494:B 0.000139692
20 *133:29 *141:12 5.3304e-05
21 *133:40 *141:12 5.41986e-05
22 *140:10 *494:B 0.000157378
23 *140:10 *141:12 7.01529e-05
24 *140:10 *141:41 2.11066e-05
*RES
1 *492:X *141:12 42.8057 
2 *141:12 *494:B 43.655 
3 *141:12 *141:41 32.1702 
4 *141:41 *504:B1 23 
*END

*D_NET *142 0.00125099
*CONN
*I *494:C I *D sky130_fd_sc_hd__nor3_1
*I *493:X O *D sky130_fd_sc_hd__a31o_1
*CAP
1 *494:C 4.89954e-05
2 *493:X 0.000224218
3 *142:14 0.000273214
4 *142:14 *504:C1 2.93335e-05
5 *493:A2 *142:14 5.3304e-05
6 *494:A *494:C 5.56356e-05
7 *494:B *494:C 1.41129e-05
8 *494:B *142:14 0.000150556
9 *504:A3 *142:14 8.46461e-05
10 *107:89 *494:C 0.000100069
11 *116:40 *494:C 5.3304e-05
12 *134:18 *494:C 0.000119565
13 *141:12 *142:14 4.40333e-05
*RES
1 *493:X *142:14 42.35 
2 *142:14 *494:C 40.0507 
*END

*D_NET *143 0.0018559
*CONN
*I *495:C1 I *D sky130_fd_sc_hd__a211o_1
*I *494:Y O *D sky130_fd_sc_hd__nor3_1
*CAP
1 *495:C1 0.000167449
2 *494:Y 0.000239739
3 *143:10 0.000407188
4 *495:C1 *480:B 0
5 *143:10 *147:12 7.07395e-05
6 *143:10 *169:14 4.00781e-05
7 *143:10 *175:10 3.72639e-05
8 *486:B *143:10 3.92407e-05
9 *493:B1 *495:C1 2.61526e-05
10 *499:A1 *495:C1 6.17437e-06
11 *499:B1 *495:C1 0.000164528
12 *107:89 *143:10 0.000224321
13 *117:66 *143:10 5.56279e-05
14 *132:12 *495:C1 0.000214036
15 *134:18 *143:10 0.000163361
*RES
1 *494:Y *143:10 44.1936 
2 *143:10 *495:C1 42.93 
*END

*D_NET *144 0.00367187
*CONN
*I *509:B1 I *D sky130_fd_sc_hd__a221o_1
*I *498:A I *D sky130_fd_sc_hd__nand2_2
*I *496:X O *D sky130_fd_sc_hd__or2_1
*CAP
1 *509:B1 0.00102278
2 *498:A 0
3 *496:X 0
4 *144:14 0.000146674
5 *144:4 0.00116945
6 *509:B1 *146:16 6.0392e-05
7 *509:B1 *180:39 0.00014196
8 *509:B1 *180:54 0.000295609
9 *509:B1 *181:94 3.7681e-05
10 *144:14 *145:10 0.000126343
11 *144:14 *145:20 1.01436e-05
12 *144:14 *146:8 7.53384e-06
13 *144:14 *157:12 4.23714e-05
14 *144:14 *180:39 5.3304e-05
15 *509:B2 *509:B1 1.69851e-05
16 *509:C1 *509:B1 9.94331e-05
17 *33:10 *509:B1 9.84851e-05
18 *88:8 *144:14 5.50049e-05
19 *92:81 *509:B1 0.000287722
*RES
1 *496:X *144:4 23 
2 *144:4 *144:14 33.1486 
3 *144:14 *498:A 23 
4 *144:4 *509:B1 40.1721 
*END

*D_NET *145 0.00886512
*CONN
*I *510:A2 I *D sky130_fd_sc_hd__o22ai_1
*I *498:B I *D sky130_fd_sc_hd__nand2_2
*I *519:A1 I *D sky130_fd_sc_hd__a31o_1
*I *411:C1 I *D sky130_fd_sc_hd__o211a_1
*I *518:A1 I *D sky130_fd_sc_hd__a21oi_1
*I *497:Y O *D sky130_fd_sc_hd__nand2_2
*CAP
1 *510:A2 0
2 *498:B 0
3 *519:A1 0
4 *411:C1 3.1941e-05
5 *518:A1 0
6 *497:Y 1.49804e-05
7 *145:76 0.00127983
8 *145:40 0.000317722
9 *145:28 0.000432747
10 *145:24 0.000233797
11 *145:20 0.00119001
12 *145:10 0.00118096
13 *145:8 0.00143648
14 *411:C1 *519:A2 1.83408e-05
15 *411:C1 *148:14 4.96811e-06
16 *145:8 *157:23 5.50106e-05
17 *145:8 *180:39 5.50106e-05
18 *145:10 *157:12 0
19 *145:10 *157:36 0
20 *145:20 *403:A1 1.32939e-05
21 *145:20 *403:A2 0.000136415
22 *145:20 *526:C 0
23 *145:20 *146:44 0.000205879
24 *145:20 *157:12 0
25 *145:20 *157:36 0
26 *145:24 *171:10 7.67018e-05
27 *145:24 *181:68 4.49946e-05
28 *145:28 *171:10 2.42807e-05
29 *145:40 *411:A2 9.58714e-05
30 *145:40 *500:B 4.08537e-05
31 *145:40 *146:71 7.17297e-05
32 *145:40 *148:14 6.08329e-06
33 *145:40 *171:10 1.00684e-05
34 *145:76 *152:12 0
35 *145:76 *164:30 6.30728e-05
36 *411:B1 *145:40 1.41077e-05
37 *32:23 *145:20 0
38 *43:68 *411:C1 5.56356e-05
39 *43:68 *145:40 0.000110587
40 *52:12 *145:20 0
41 *58:10 *145:20 0
42 *59:10 *145:20 0.000741341
43 *91:28 *145:76 0.000269688
44 *105:48 *145:76 0.000337422
45 *108:32 *145:24 0.000158796
46 *144:14 *145:10 0.000126343
47 *144:14 *145:20 1.01436e-05
*RES
1 *497:Y *145:8 38.6214 
2 *145:8 *145:10 2.61 
3 *145:10 *145:20 36.9157 
4 *145:20 *145:24 17.61 
5 *145:24 *145:28 1.41893 
6 *145:28 *145:40 49.8782 
7 *145:40 *518:A1 23 
8 *145:28 *411:C1 38.9425 
9 *145:24 *519:A1 38 
10 *145:10 *498:B 38 
11 *145:8 *145:76 34.0779 
12 *145:76 *510:A2 23 
*END

*D_NET *146 0.00995769
*CONN
*I *505:A I *D sky130_fd_sc_hd__nand2_1
*I *510:B1 I *D sky130_fd_sc_hd__o22ai_1
*I *411:A1 I *D sky130_fd_sc_hd__o211a_1
*I *500:A I *D sky130_fd_sc_hd__or2_1
*I *501:A I *D sky130_fd_sc_hd__nand2_1
*I *403:A1 I *D sky130_fd_sc_hd__a311o_1
*I *506:A1 I *D sky130_fd_sc_hd__o21a_1
*I *498:Y O *D sky130_fd_sc_hd__nand2_2
*CAP
1 *505:A 0
2 *510:B1 0
3 *411:A1 0
4 *500:A 0
5 *501:A 2.0995e-05
6 *403:A1 0.000197743
7 *506:A1 0
8 *498:Y 0.000224918
9 *146:93 0.000910041
10 *146:71 0.000460528
11 *146:57 0.000642683
12 *146:53 0.00112681
13 *146:44 0.000630685
14 *146:31 0.00102723
15 *146:25 0.000328698
16 *146:16 0.000191558
17 *146:8 0.000490763
18 *403:A1 *403:A2 0.000149462
19 *501:A *502:A2 1.14154e-05
20 *146:16 *157:36 0
21 *146:16 *180:54 9.84794e-05
22 *146:31 *403:A2 0.000193417
23 *146:44 *403:A2 9.84794e-05
24 *146:44 *502:A2 3.22879e-05
25 *146:44 *150:10 5.79559e-05
26 *146:53 *502:A2 2.18409e-05
27 *146:57 *502:A1 3.95587e-05
28 *146:57 *147:26 2.46922e-05
29 *146:57 *147:37 1.02387e-05
30 *146:57 *148:14 2.89454e-05
31 *146:57 *181:68 0
32 *146:71 *500:B 1.14893e-05
33 *146:71 *147:37 9.21347e-06
34 *146:71 *148:14 6.12447e-05
35 *146:93 *489:A1_N 1.17152e-05
36 *146:93 *147:37 9.41704e-05
37 *146:93 *179:22 0
38 *146:93 *179:30 0
39 *411:B1 *146:93 0.000149447
40 *507:A *146:8 3.6647e-05
41 *509:B1 *146:16 6.0392e-05
42 *510:A1 *146:93 1.56762e-05
43 *520:B1 *146:25 5.12328e-05
44 *520:B1 *146:31 3.56537e-05
45 *521:B1 *146:93 0.000463131
46 *32:6 *146:8 7.44161e-06
47 *32:6 *146:25 0.000182826
48 *32:10 *146:8 2.13733e-05
49 *32:23 *146:8 2.93747e-05
50 *33:10 *146:16 0.000108681
51 *33:10 *146:31 4.21594e-06
52 *37:10 *146:93 0.000135037
53 *42:18 *146:31 0
54 *43:19 *146:31 7.27735e-05
55 *43:68 *146:71 1.05441e-05
56 *50:10 *146:8 0.00039759
57 *59:10 *146:44 5.61255e-06
58 *83:20 *146:57 0.000102649
59 *88:8 *146:8 8.2832e-05
60 *96:48 *146:93 9.58714e-05
61 *96:54 *146:93 5.56203e-05
62 *96:65 *146:93 8.43466e-05
63 *105:34 *146:93 9.41704e-05
64 *107:56 *146:93 0
65 *108:24 *146:44 4.46353e-05
66 *108:24 *146:93 8.58823e-05
67 *108:32 *146:44 1.83408e-05
68 *144:14 *146:8 7.53384e-06
69 *145:20 *403:A1 1.32939e-05
70 *145:20 *146:44 0.000205879
71 *145:40 *146:71 7.17297e-05
*RES
1 *498:Y *146:8 29.5871 
2 *146:8 *146:16 33.3557 
3 *146:16 *506:A1 23 
4 *146:8 *146:25 2.54786 
5 *146:25 *146:31 35.4271 
6 *146:31 *403:A1 26.5214 
7 *146:31 *146:44 10.6264 
8 *146:44 *501:A 23.4971 
9 *146:44 *146:53 0.621429 
10 *146:53 *146:57 18.6664 
11 *146:57 *146:71 33.6331 
12 *146:71 *500:A 23 
13 *146:57 *411:A1 38 
14 *146:53 *146:93 47.7936 
15 *146:93 *510:B1 23 
16 *146:25 *505:A 23 
*END

*D_NET *147 0.00815677
*CONN
*I *411:A2 I *D sky130_fd_sc_hd__o211a_1
*I *500:B I *D sky130_fd_sc_hd__or2_1
*I *501:B I *D sky130_fd_sc_hd__nand2_1
*I *499:Y O *D sky130_fd_sc_hd__a21oi_1
*CAP
1 *411:A2 0.000105125
2 *500:B 0.00030976
3 *501:B 0
4 *499:Y 0.000152119
5 *147:37 0.00060984
6 *147:26 0.00289005
7 *147:12 0.00284722
8 *500:B *557:A 5.10117e-05
9 *500:B *148:14 0
10 *500:B *171:24 3.28227e-05
11 *147:12 *556:A 5.24393e-05
12 *147:12 *169:14 0.000121284
13 *147:37 *557:A 9.48381e-06
14 *147:37 *170:10 6.57779e-05
15 *411:B1 *411:A2 6.10963e-05
16 *486:B *147:12 1.02387e-05
17 *39:35 *147:26 2.32089e-05
18 *43:68 *500:B 0
19 *83:20 *411:A2 5.90075e-05
20 *83:20 *147:26 0.000135039
21 *83:20 *147:37 0.000214312
22 *108:24 *147:37 4.9662e-05
23 *143:10 *147:12 7.07395e-05
24 *145:40 *411:A2 9.58714e-05
25 *145:40 *500:B 4.08537e-05
26 *146:57 *147:26 2.46922e-05
27 *146:57 *147:37 1.02387e-05
28 *146:71 *500:B 1.14893e-05
29 *146:71 *147:37 9.21347e-06
30 *146:93 *147:37 9.41704e-05
*RES
1 *499:Y *147:12 48.5329 
2 *147:12 *147:26 44.7661 
3 *147:26 *501:B 23 
4 *147:26 *147:37 19.7643 
5 *147:37 *500:B 42.93 
6 *147:37 *411:A2 40.5479 
*END

*D_NET *148 0.00234506
*CONN
*I *518:A2 I *D sky130_fd_sc_hd__a21oi_1
*I *502:A1 I *D sky130_fd_sc_hd__a21o_1
*I *519:A2 I *D sky130_fd_sc_hd__a31o_1
*I *500:X O *D sky130_fd_sc_hd__or2_1
*CAP
1 *518:A2 0.00016167
2 *502:A1 0.000139503
3 *519:A2 0.000229176
4 *500:X 0.000140678
5 *148:14 0.000554529
6 *148:6 0.000488197
7 *502:A1 *181:68 0
8 *518:A2 *431:A 9.84851e-05
9 *518:A2 *171:14 2.28212e-05
10 *519:A2 *171:10 6.17437e-06
11 *148:6 *171:14 4.77213e-05
12 *411:C1 *519:A2 1.83408e-05
13 *411:C1 *148:14 4.96811e-06
14 *500:B *148:14 0
15 *43:68 *518:A2 4.34745e-05
16 *43:68 *519:A2 5.57836e-05
17 *43:68 *148:6 5.50106e-05
18 *43:68 *148:14 0.000107232
19 *108:32 *502:A1 2.17956e-05
20 *108:32 *148:14 1.36714e-05
21 *145:40 *148:14 6.08329e-06
22 *146:57 *502:A1 3.95587e-05
23 *146:57 *148:14 2.89454e-05
24 *146:71 *148:14 6.12447e-05
*RES
1 *500:X *148:6 25.0507 
2 *148:6 *148:14 18.7286 
3 *148:14 *519:A2 41.5214 
4 *148:14 *502:A1 40.2579 
5 *148:6 *518:A2 26.045 
*END

*D_NET *149 0.000256277
*CONN
*I *502:A2 I *D sky130_fd_sc_hd__a21o_1
*I *501:Y O *D sky130_fd_sc_hd__nand2_1
*CAP
1 *502:A2 4.05747e-05
2 *501:Y 4.05747e-05
3 *501:A *502:A2 1.14154e-05
4 *502:B1 *502:A2 1.11037e-05
5 *108:24 *502:A2 9.84794e-05
6 *146:44 *502:A2 3.22879e-05
7 *146:53 *502:A2 2.18409e-05
*RES
1 *501:Y *502:A2 47.595 
*END

*D_NET *150 0.000600623
*CONN
*I *512:B1 I *D sky130_fd_sc_hd__o31a_1
*I *502:X O *D sky130_fd_sc_hd__a21o_1
*CAP
1 *512:B1 1.94347e-05
2 *502:X 0.000141153
3 *150:10 0.000160588
4 *150:10 *181:68 0.000137216
5 *512:A1 *512:B1 5.56356e-05
6 *83:20 *150:10 0
7 *93:54 *512:B1 2.86398e-05
8 *146:44 *150:10 5.79559e-05
*RES
1 *502:X *150:10 40.5271 
2 *150:10 *512:B1 38.6214 
*END

*D_NET *151 0.00312657
*CONN
*I *504:C1 I *D sky130_fd_sc_hd__a311o_1
*I *503:X O *D sky130_fd_sc_hd__and2b_1
*CAP
1 *504:C1 0.000431264
2 *503:X 0.00053594
3 *151:8 0.000967204
4 *504:C1 *175:8 0
5 *151:8 *175:57 0.000185648
6 *493:A1 *504:C1 2.94793e-05
7 *493:A2 *504:C1 3.78939e-05
8 *493:B1 *504:C1 0
9 *504:A3 *504:C1 0.00019888
10 *133:23 *151:8 0.000530622
11 *133:29 *151:8 4.04303e-05
12 *133:40 *504:C1 0.000133649
13 *141:12 *504:C1 6.22448e-06
14 *142:14 *504:C1 2.93335e-05
*RES
1 *503:X *151:8 46.7207 
2 *151:8 *504:C1 44.9186 
*END

*D_NET *152 0.00664006
*CONN
*I *505:B I *D sky130_fd_sc_hd__nand2_1
*I *403:A2 I *D sky130_fd_sc_hd__a311o_1
*I *506:A2 I *D sky130_fd_sc_hd__o21a_1
*I *504:X O *D sky130_fd_sc_hd__a311o_1
*CAP
1 *505:B 0
2 *403:A2 0.000345306
3 *506:A2 0
4 *504:X 0.000228085
5 *152:23 0.000795142
6 *152:12 0.00154007
7 *152:8 0.00131832
8 *152:12 *164:38 4.85126e-05
9 *152:12 *175:67 0
10 *152:23 *180:54 0.000177899
11 result[0] *152:12 7.20154e-05
12 *403:A1 *403:A2 0.000149462
13 *463:A *152:12 0
14 *464:B2 *152:12 0
15 *479:A1 *152:12 0
16 *520:A2_N *403:A2 0
17 *520:A2_N *152:23 0
18 *33:10 *152:23 0
19 *41:21 *403:A2 0
20 *43:10 *403:A2 0
21 *43:19 *403:A2 0
22 *53:10 *403:A2 0.000136486
23 *92:81 *152:23 0
24 *100:12 *152:12 8.62876e-05
25 *105:48 *152:23 0
26 *109:10 *152:12 0
27 *115:8 *152:12 3.88504e-05
28 *118:14 *152:12 0.0004869
29 *121:34 *152:8 0.000526313
30 *121:34 *152:12 0
31 *122:16 *152:12 6.2002e-05
32 *123:10 *152:12 6.33614e-05
33 *132:20 *152:8 0.000136738
34 *145:20 *403:A2 0.000136415
35 *145:76 *152:12 0
36 *146:31 *403:A2 0.000193417
37 *146:44 *403:A2 9.84794e-05
*RES
1 *504:X *152:8 43.8621 
2 *152:8 *152:12 37.33 
3 *152:12 *506:A2 23 
4 *152:12 *152:23 22.1464 
5 *152:23 *403:A2 47.425 
6 *152:23 *505:B 38 
*END

*D_NET *153 0.00655723
*CONN
*I *442:A1 I *D sky130_fd_sc_hd__a221oi_1
*I *443:A1 I *D sky130_fd_sc_hd__o22a_1
*I *439:A I *D sky130_fd_sc_hd__nand2_1
*I *451:A_N I *D sky130_fd_sc_hd__nand2b_1
*I *446:B2 I *D sky130_fd_sc_hd__o22ai_1
*I *461:B2 I *D sky130_fd_sc_hd__a2bb2o_1
*I *533:X O *D sky130_fd_sc_hd__dlymetal6s2s_1
*CAP
1 *442:A1 0
2 *443:A1 0
3 *439:A 2.32701e-05
4 *451:A_N 0
5 *446:B2 0
6 *461:B2 0
7 *533:X 6.10588e-05
8 *153:67 5.99934e-05
9 *153:44 2.32701e-05
10 *153:32 0.000468639
11 *153:24 0.000723633
12 *153:18 0.00110738
13 *153:8 0.000971508
14 *153:6 0.000240172
15 *439:A *451:B 5.3304e-05
16 *153:6 *184:12 2.98648e-05
17 *153:8 *184:12 1.94812e-05
18 *153:8 *184:18 7.99724e-05
19 *153:18 *447:C 0.000181125
20 *153:18 *451:B 0.000137651
21 *153:18 *179:22 0
22 *153:18 *184:18 5.67058e-05
23 *153:18 *184:24 0.000380368
24 *153:67 *184:53 0.000166522
25 *446:A2 *153:32 0.000168985
26 *91:12 *153:24 0.000301719
27 *91:12 *153:32 9.5877e-05
28 *92:16 *153:67 0.000166522
29 *95:8 *439:A 5.3304e-05
30 *97:46 *153:32 8.54619e-05
31 *98:10 *153:24 3.22879e-05
32 *98:10 *153:32 7.53384e-06
33 *99:53 *153:24 0
34 *102:14 *153:32 0.00047308
35 *102:32 *153:32 0
36 *103:8 *153:32 2.04854e-05
37 *105:57 *153:32 9.19153e-05
38 *108:14 *153:18 5.94125e-05
39 *108:14 *153:24 0.000216721
*RES
1 *533:X *153:6 24.0979 
2 *153:6 *153:8 2.52714 
3 *153:8 *153:18 28.4229 
4 *153:18 *153:24 21.4421 
5 *153:24 *153:32 40.8543 
6 *153:32 *461:B2 23 
7 *153:24 *446:B2 23 
8 *153:18 *153:44 15 
9 *153:44 *451:A_N 23 
10 *153:44 *439:A 23.6214 
11 *153:8 *443:A1 23 
12 *153:6 *153:67 32.2579 
13 *153:67 *442:A1 23 
*END

*D_NET *154 0.00309811
*CONN
*I *458:A2 I *D sky130_fd_sc_hd__o21a_1
*I *449:B I *D sky130_fd_sc_hd__nand2_1
*I *450:B I *D sky130_fd_sc_hd__xnor2_2
*I *470:A_N I *D sky130_fd_sc_hd__and2b_1
*I *534:X O *D sky130_fd_sc_hd__dlymetal6s2s_1
*CAP
1 *458:A2 0.000120922
2 *449:B 0
3 *450:B 0
4 *470:A_N 0
5 *534:X 0
6 *154:40 0.000513431
7 *154:23 0.000721834
8 *154:10 0.000104701
9 *154:4 0.000434027
10 *154:10 *470:B 0.000193135
11 *154:23 *470:B 0
12 *154:40 *164:38 9.41704e-05
13 *458:B1 *458:A2 5.40337e-05
14 *463:A *154:23 0
15 *534:A *154:10 4.21594e-06
16 *100:12 *154:40 9.5877e-05
17 *100:25 *458:A2 0.000151629
18 *100:25 *154:40 5.67058e-05
19 *101:8 *458:A2 0
20 *101:8 *154:40 2.54193e-05
21 *101:39 *458:A2 0.000490432
22 *101:39 *154:40 3.75815e-05
*RES
1 *534:X *154:4 23 
2 *154:4 *154:10 32.61 
3 *154:10 *470:A_N 23 
4 *154:4 *154:23 35.4893 
5 *154:23 *450:B 23 
6 *154:23 *154:40 7.51929 
7 *154:40 *449:B 23 
8 *154:40 *458:A2 28.8829 
*END

*D_NET *155 0.0019447
*CONN
*I *491:A2 I *D sky130_fd_sc_hd__o211a_1
*I *492:A_N I *D sky130_fd_sc_hd__and3b_1
*I *466:B I *D sky130_fd_sc_hd__nand2_1
*I *465:B I *D sky130_fd_sc_hd__or2_1
*I *535:X O *D sky130_fd_sc_hd__buf_1
*CAP
1 *491:A2 0
2 *492:A_N 0.000139428
3 *466:B 0
4 *465:B 0.000113132
5 *535:X 0.000139388
6 *155:34 0.000139428
7 *155:18 0.000319401
8 *155:12 0.000345657
9 *465:B *465:A 0.00010018
10 *465:B *175:67 4.34745e-05
11 *492:A_N *175:67 7.12098e-05
12 *155:12 *175:67 1.00148e-05
13 *491:A1 *492:A_N 0.000102389
14 *504:A3 *465:B 1.37232e-05
15 *87:8 *155:12 6.04724e-05
16 *87:8 *155:18 3.36312e-06
17 *121:34 *465:B 1.56665e-05
18 *121:34 *155:18 5.3304e-05
19 *122:29 *155:18 0.000243578
20 *140:10 *492:A_N 3.08948e-05
*RES
1 *535:X *155:12 40.6721 
2 *155:12 *155:18 18.9357 
3 *155:18 *465:B 25.5479 
4 *155:18 *466:B 23 
5 *155:12 *155:34 15 
6 *155:34 *492:A_N 26.0243 
7 *155:34 *491:A2 23 
*END

*D_NET *156 0.00183229
*CONN
*I *484:B I *D sky130_fd_sc_hd__xnor2_2
*I *503:A_N I *D sky130_fd_sc_hd__and2b_1
*I *481:B I *D sky130_fd_sc_hd__nand2_1
*I *482:B I *D sky130_fd_sc_hd__nor2_1
*I *480:B I *D sky130_fd_sc_hd__and2_1
*I *536:X O *D sky130_fd_sc_hd__dlymetal6s2s_1
*CAP
1 *484:B 0
2 *503:A_N 4.14331e-05
3 *481:B 0
4 *482:B 7.7654e-05
5 *480:B 0.000134344
6 *536:X 0.000172316
7 *156:39 4.14331e-05
8 *156:14 0.000218351
9 *156:12 0.000172076
10 *156:8 0.000338039
11 *480:B *481:A 4.00259e-06
12 *480:B *482:A 4.95081e-05
13 *480:B *179:57 5.70419e-05
14 *480:B *179:64 2.4754e-05
15 *482:B *482:A 3.81946e-05
16 *503:A_N *484:A 0.000139346
17 *156:8 *179:8 0
18 *156:12 *179:10 0
19 *156:12 *179:16 0
20 *156:14 *481:A 5.90675e-06
21 *156:14 *482:A 1.14154e-05
22 *495:C1 *480:B 0
23 *131:14 *482:B 2.65879e-05
24 *131:14 *503:A_N 9.84794e-05
25 *131:14 *156:8 2.46345e-05
26 *131:14 *156:12 0.000136486
27 *131:27 *156:12 0
28 *133:12 *156:12 0
29 *133:23 *503:A_N 2.02872e-05
*RES
1 *536:X *156:8 40.9621 
2 *156:8 *156:12 17.9621 
3 *156:12 *156:14 0.497143 
4 *156:14 *480:B 26.0243 
5 *156:14 *482:B 25.0714 
6 *156:12 *481:B 23 
7 *156:8 *156:39 15 
8 *156:39 *503:A_N 24.5743 
9 *156:39 *484:B 23 
*END

*D_NET *157 0.00242771
*CONN
*I *526:A_N I *D sky130_fd_sc_hd__and3b_1
*I *524:A2 I *D sky130_fd_sc_hd__o211a_1
*I *497:B I *D sky130_fd_sc_hd__nand2_2
*I *496:B I *D sky130_fd_sc_hd__or2_1
*I *537:X O *D sky130_fd_sc_hd__buf_1
*CAP
1 *526:A_N 0.000102969
2 *524:A2 0
3 *497:B 0
4 *496:B 0
5 *537:X 7.14539e-05
6 *157:36 0.000246896
7 *157:23 0.000464298
8 *157:12 0.000404816
9 *157:6 0.000361838
10 *526:A_N *526:C 6.7063e-05
11 *157:6 *526:C 1.94812e-05
12 *157:12 *526:C 0.000197479
13 *157:12 *180:10 0.000138718
14 *157:23 *497:A 1.14154e-05
15 *157:23 *180:32 3.76702e-05
16 *157:23 *180:39 9.74625e-05
17 *157:23 *180:54 3.84772e-05
18 *157:36 *180:54 5.50049e-05
19 *547:A *157:12 9.20726e-06
20 *32:23 *157:36 6.07611e-06
21 *33:10 *157:36 0
22 *144:14 *157:12 4.23714e-05
23 *145:8 *157:23 5.50106e-05
24 *145:10 *157:12 0
25 *145:10 *157:36 0
26 *145:20 *157:12 0
27 *145:20 *157:36 0
28 *146:16 *157:36 0
*RES
1 *537:X *157:6 24.0979 
2 *157:6 *157:12 34.7229 
3 *157:12 *496:B 23 
4 *157:12 *157:23 5.30286 
5 *157:23 *497:B 23 
6 *157:23 *157:36 33.2314 
7 *157:36 *524:A2 23 
8 *157:6 *526:A_N 25.0507 
*END

*D_NET *158 0.00224073
*CONN
*I *514:B I *D sky130_fd_sc_hd__nor2_1
*I *515:B I *D sky130_fd_sc_hd__or2_1
*I *513:B I *D sky130_fd_sc_hd__nand2_1
*I *401:A_N I *D sky130_fd_sc_hd__nand2b_1
*I *538:X O *D sky130_fd_sc_hd__buf_1
*CAP
1 *514:B 0
2 *515:B 0
3 *513:B 9.33674e-05
4 *401:A_N 0
5 *538:X 0.000361297
6 *158:29 0.000206582
7 *158:20 0.000132767
8 *158:18 3.50649e-05
9 *158:14 0.00037681
10 *513:B *513:A 8.01689e-05
11 *513:B *181:39 0.00010018
12 *158:14 *181:14 8.82957e-05
13 *158:18 *181:37 2.93335e-05
14 *158:20 *181:37 2.31687e-05
15 *158:29 *513:A 0
16 *158:29 *514:A 1.11037e-05
17 *158:29 *181:37 6.61858e-05
18 *158:29 *181:39 0.000173668
19 *548:A *158:14 1.39431e-05
20 *44:10 *158:14 2.57088e-05
21 *44:10 *158:18 2.46906e-05
22 *44:10 *158:20 2.93431e-05
23 *57:10 *513:B 0.000312348
24 *57:10 *158:29 5.67058e-05
*RES
1 *538:X *158:14 43.5514 
2 *158:14 *158:18 15.6214 
3 *158:18 *158:20 0.621429 
4 *158:20 *401:A_N 23 
5 *158:20 *158:29 3.02429 
6 *158:29 *513:B 26.9771 
7 *158:29 *515:B 23 
8 *158:18 *514:B 23 
*END

*D_NET *159 0.00123917
*CONN
*I *529:B I *D sky130_fd_sc_hd__or2_1
*I *420:A_N I *D sky130_fd_sc_hd__and2b_1
*I *399:B I *D sky130_fd_sc_hd__nand2_1
*I *539:X O *D sky130_fd_sc_hd__clkbuf_1
*CAP
1 *529:B 0.000191184
2 *420:A_N 0
3 *399:B 2.3388e-05
4 *539:X 0.000195128
5 *159:12 2.3388e-05
6 *159:10 0.000386313
7 *399:B *420:B 5.43208e-06
8 *399:B *431:C 3.28277e-05
9 *399:B *182:16 5.59984e-05
10 *529:B *173:12 5.94125e-05
11 *529:B *182:16 0.000153369
12 *529:B *182:20 3.06608e-05
13 *529:B *182:30 0
14 *159:10 *173:12 6.25829e-05
15 *539:A *159:10 1.94812e-05
*RES
1 *539:X *159:10 40.8793 
2 *159:10 *159:12 15 
3 *159:12 *399:B 23.8182 
4 *159:12 *420:A_N 23 
5 *159:10 *529:B 41.3971 
*END

*D_NET *160 0.00203536
*CONN
*I *432:A_N I *D sky130_fd_sc_hd__nand2b_1
*I *416:B I *D sky130_fd_sc_hd__nand2_1
*I *415:B I *D sky130_fd_sc_hd__or2_1
*I *540:X O *D sky130_fd_sc_hd__clkbuf_1
*CAP
1 *432:A_N 1.76294e-05
2 *416:B 6.91663e-05
3 *415:B 0.000167327
4 *540:X 4.68338e-05
5 *160:21 0.00021891
6 *160:8 0.000346274
7 *415:B *183:12 1.02387e-05
8 *416:B *416:A 2.02517e-05
9 *416:B *183:29 0.000193036
10 *160:21 *432:B 1.28818e-05
11 *160:21 *183:29 5.50049e-05
12 *417:B *416:B 4.37033e-05
13 *417:B *432:A_N 4.00259e-06
14 *424:B *416:B 7.53384e-06
15 *16:11 *415:B 6.99351e-05
16 *16:11 *160:8 5.56306e-05
17 *72:10 *416:B 1.14876e-05
18 *76:21 *415:B 2.95184e-05
19 *85:10 *415:B 0.000194318
20 *85:10 *160:21 3.7122e-06
21 *86:10 *415:B 4.85126e-05
22 *92:16 *415:B 0.0003055
23 *92:16 *160:8 0.000103949
*RES
1 *540:X *160:8 39.5536 
2 *160:8 *415:B 43.7793 
3 *160:8 *160:21 17.0507 
4 *160:21 *416:B 25.5479 
5 *160:21 *432:A_N 23.4971 
*END

*D_NET *161 0.00299473
*CONN
*I *532:A I *D sky130_fd_sc_hd__buf_2
*I *456:C I *D sky130_fd_sc_hd__nor3_4
*I *541:X O *D sky130_fd_sc_hd__buf_1
*CAP
1 *532:A 0.000171341
2 *456:C 0
3 *541:X 0.000407829
4 *161:10 0.000579171
5 *532:A *456:B 0.000222791
6 *532:A *162:8 0.000137249
7 *532:A *177:10 7.75771e-06
8 *532:A *178:8 0.000183286
9 *161:10 *441:B 4.91851e-05
10 *161:10 *442:B1 1.36806e-05
11 *161:10 *442:B2 0.00017015
12 *161:10 *442:C1 9.5877e-05
13 *161:10 *454:B 0.00010018
14 *161:10 *177:10 7.61285e-05
15 *161:10 *177:37 0.000178517
16 *161:10 *178:8 9.08847e-05
17 *21:11 *532:A 2.04774e-05
18 *92:8 *161:10 8.94487e-05
19 *92:16 *161:10 0.000135313
20 *94:10 *161:10 0.000265466
*RES
1 *541:X *161:10 48.9371 
2 *161:10 *456:C 38 
3 *161:10 *532:A 43.7793 
*END

*D_NET *162 0.00092649
*CONN
*I *531:A I *D sky130_fd_sc_hd__clkbuf_2
*I *456:B I *D sky130_fd_sc_hd__nor3_4
*I *542:X O *D sky130_fd_sc_hd__buf_1
*CAP
1 *531:A 0
2 *456:B 9.79646e-05
3 *542:X 6.53687e-05
4 *162:8 0.000163333
5 *456:B *177:10 0.000141869
6 *532:A *456:B 0.000222791
7 *532:A *162:8 0.000137249
8 *21:11 *456:B 3.85353e-05
9 *21:11 *162:8 5.9379e-05
*RES
1 *542:X *162:8 39.9057 
2 *162:8 *456:B 40.9621 
3 *162:8 *531:A 38 
*END

*D_NET *163 0.0024367
*CONN
*I *530:A I *D sky130_fd_sc_hd__buf_2
*I *456:A I *D sky130_fd_sc_hd__nor3_4
*I *454:C_N I *D sky130_fd_sc_hd__or3b_2
*I *543:X O *D sky130_fd_sc_hd__buf_1
*CAP
1 *530:A 1.50079e-05
2 *456:A 3.80122e-05
3 *454:C_N 0.00019339
4 *543:X 0.000151104
5 *163:12 0.000370979
6 *163:10 0.000305688
7 *454:C_N *454:B 9.33741e-05
8 *454:C_N *176:10 0.000130433
9 *454:C_N *176:14 0.000287592
10 *454:C_N *177:37 8.4047e-05
11 *454:C_N *178:94 0.000219891
12 *456:A *176:75 5.3304e-05
13 *530:A *177:66 5.50049e-05
14 *163:12 *176:8 0.000131744
15 *163:12 *176:10 3.47781e-05
16 *163:12 *178:94 4.92689e-05
17 *543:A *163:10 0.000124169
18 *21:11 *163:10 5.62433e-06
19 *21:11 *163:12 3.82852e-05
20 *89:21 *163:12 0
21 *107:79 *530:A 5.50049e-05
*RES
1 *543:X *163:10 40.5271 
2 *163:10 *163:12 3.31429 
3 *163:12 *454:C_N 43.7793 
4 *163:12 *456:A 38.6214 
5 *163:10 *530:A 38.6214 
*END

*D_NET *164 0.00863402
*CONN
*I *448:A1 I *D sky130_fd_sc_hd__a211o_1
*I *474:B2 I *D sky130_fd_sc_hd__a22o_1
*I *459:A1 I *D sky130_fd_sc_hd__o22a_1
*I *458:A1 I *D sky130_fd_sc_hd__o21a_1
*I *449:A I *D sky130_fd_sc_hd__nand2_1
*I *470:B I *D sky130_fd_sc_hd__and2b_1
*I *450:A I *D sky130_fd_sc_hd__xnor2_2
*I *544:X O *D sky130_fd_sc_hd__clkbuf_2
*CAP
1 *448:A1 9.18719e-05
2 *474:B2 0
3 *459:A1 3.81818e-05
4 *458:A1 0
5 *449:A 0
6 *470:B 0.000407231
7 *450:A 0
8 *544:X 0
9 *164:85 9.07828e-05
10 *164:79 0.000281316
11 *164:68 0.000817321
12 *164:51 0.000161822
13 *164:45 0.00117838
14 *164:38 0.000147276
15 *164:30 0.000800858
16 *164:8 0.00053104
17 *164:4 0.000441315
18 *448:A1 *166:10 1.21972e-05
19 *164:68 *166:10 2.43944e-05
20 *164:79 *166:10 4.2062e-05
21 *448:A2 *448:A1 9.5877e-05
22 *459:B2 *459:A1 8.78791e-05
23 *459:B2 *164:68 2.18286e-05
24 *459:B2 *164:79 3.42179e-05
25 *461:B1 *459:A1 0
26 *461:B1 *164:68 0.000135037
27 *463:A *470:B 0
28 *463:A *164:38 6.07611e-06
29 *471:A1 *470:B 0
30 *534:A *470:B 0
31 *83:20 *164:68 3.3746e-05
32 *91:22 *164:68 0.000142634
33 *91:28 *164:8 0
34 *91:28 *164:30 9.84851e-05
35 *91:28 *164:38 8.16356e-05
36 *91:28 *164:45 0.000692929
37 *91:28 *164:68 0.000230668
38 *92:81 *164:51 4.90994e-05
39 *95:8 *448:A1 1.37232e-05
40 *99:16 *164:85 3.70187e-05
41 *99:35 *164:85 0.000181943
42 *100:12 *164:38 5.94125e-05
43 *100:25 *164:68 0.00026599
44 *101:39 *164:38 4.67488e-05
45 *102:10 *448:A1 0.000166987
46 *102:10 *164:79 5.50106e-05
47 *105:57 *164:68 0.000339893
48 *106:20 *164:85 6.07611e-06
49 *106:26 *164:68 1.24376e-05
50 *106:26 *164:79 0.000166079
51 *106:26 *164:85 0.000107651
52 *145:76 *164:30 6.30728e-05
53 *152:12 *164:38 4.85126e-05
54 *154:10 *470:B 0.000193135
55 *154:23 *470:B 0
56 *154:40 *164:38 9.41704e-05
*RES
1 *544:X *164:4 23 
2 *164:4 *164:8 17.2579 
3 *164:8 *450:A 38 
4 *164:8 *470:B 46.2029 
5 *164:4 *164:30 5.86214 
6 *164:30 *164:38 33.3557 
7 *164:38 *449:A 23 
8 *164:30 *164:45 7.76786 
9 *164:45 *164:51 32.2579 
10 *164:51 *458:A1 23 
11 *164:45 *164:68 43.1329 
12 *164:68 *459:A1 24.3568 
13 *164:68 *164:79 3.00357 
14 *164:79 *164:85 32.9621 
15 *164:85 *474:B2 23 
16 *164:79 *448:A1 25.5479 
*END

*D_NET *165 0.000463978
*CONN
*I *552:A I *D sky130_fd_sc_hd__buf_2
*I *434:X O *D sky130_fd_sc_hd__a32o_1
*CAP
1 *552:A 5.145e-05
2 *434:X 8.30306e-05
3 *165:8 0.000134481
4 carry *165:8 2.5343e-05
5 *16:11 *165:8 0.000169674
6 *107:14 *165:8 0
*RES
1 *434:X *165:8 40.2579 
2 *165:8 *552:A 38.6214 
*END

*D_NET *166 0.00359145
*CONN
*I *429:A I *D sky130_fd_sc_hd__or4_1
*I *553:A I *D sky130_fd_sc_hd__buf_2
*I *448:X O *D sky130_fd_sc_hd__a211o_1
*CAP
1 *429:A 0
2 *553:A 0
3 *448:X 0.000454236
4 *166:26 0.000332358
5 *166:16 0.000565405
6 *166:10 0.000687283
7 *166:16 *429:C 2.1819e-05
8 *166:16 *460:A1 5.50106e-05
9 *166:16 *169:14 9.34852e-05
10 *166:26 *429:B 1.83408e-05
11 *166:26 *429:C 5.79559e-05
12 *166:26 *169:14 2.46906e-05
13 *448:A1 *166:10 1.21972e-05
14 *448:A2 *166:10 6.17437e-06
15 *459:B2 *166:10 0.000182087
16 *460:A2 *166:16 4.5e-05
17 *460:B1_N *166:16 5.3304e-05
18 *83:20 *166:10 4.96264e-05
19 *102:32 *166:16 9.64943e-05
20 *102:32 *166:26 0.000572725
21 *105:71 *166:10 1.12919e-05
22 *110:8 *166:10 8.62783e-05
23 *111:10 *166:16 9.92345e-05
24 *164:68 *166:10 2.43944e-05
25 *164:79 *166:10 4.2062e-05
*RES
1 *448:X *166:10 44.4629 
2 *166:10 *166:16 20.4064 
3 *166:16 *166:26 38.0579 
4 *166:26 *553:A 23 
5 *166:16 *429:A 23 
*END

*D_NET *167 0.00285663
*CONN
*I *554:A I *D sky130_fd_sc_hd__buf_2
*I *429:B I *D sky130_fd_sc_hd__or4_1
*I *464:X O *D sky130_fd_sc_hd__o32a_1
*CAP
1 *554:A 0
2 *429:B 8.145e-05
3 *464:X 0.000252204
4 *167:27 0.000673856
5 *167:10 0.00100751
6 *429:B *169:14 1.3523e-05
7 *167:27 *168:27 0
8 *473:B *167:27 0.00014196
9 *92:54 *167:27 2.64616e-05
10 *92:66 *167:27 0.000150242
11 *92:75 *167:10 0.000218952
12 *92:75 *167:27 7.48331e-05
13 *102:32 *429:B 2.72475e-06
14 *112:10 *167:10 0.000141677
15 *123:10 *167:27 5.2894e-05
16 *166:26 *429:B 1.83408e-05
*RES
1 *464:X *167:10 42.5364 
2 *167:10 *429:B 39.0979 
3 *167:10 *167:27 28.0293 
4 *167:27 *554:A 23 
*END

*D_NET *168 0.00527918
*CONN
*I *429:C I *D sky130_fd_sc_hd__or4_1
*I *555:A I *D sky130_fd_sc_hd__buf_2
*I *479:X O *D sky130_fd_sc_hd__o22a_1
*CAP
1 *429:C 2.443e-05
2 *555:A 0
3 *479:X 0.000179894
4 *168:27 0.00138988
5 *168:14 0.000164645
6 *168:6 0.00170999
7 *429:C *169:14 0.000100061
8 *469:A *168:6 0.000228001
9 *469:A *168:27 9.04966e-05
10 *479:A2 *168:27 0.000268074
11 *25:12 *168:14 0
12 *90:86 *168:27 0.000400606
13 *107:89 *168:27 0
14 *116:40 *168:27 2.76611e-06
15 *121:8 *168:14 0
16 *121:19 *168:14 0
17 *126:12 *168:27 0.00064057
18 *166:16 *429:C 2.1819e-05
19 *166:26 *429:C 5.79559e-05
20 *167:27 *168:27 0
*RES
1 *479:X *168:6 26.0036 
2 *168:6 *168:14 32.5271 
3 *168:14 *555:A 23 
4 *168:6 *168:27 38.3036 
5 *168:27 *429:C 39.0979 
*END

*D_NET *169 0.00427983
*CONN
*I *556:A I *D sky130_fd_sc_hd__buf_2
*I *429:D I *D sky130_fd_sc_hd__or4_1
*I *495:X O *D sky130_fd_sc_hd__a211o_1
*CAP
1 *556:A 0.000308925
2 *429:D 0
3 *495:X 0
4 *169:14 0.000835001
5 *169:6 0.00114393
6 *556:A *175:8 0
7 *556:A *175:10 0
8 *556:A *179:8 0
9 *169:14 *175:10 0
10 *169:14 *179:16 0
11 *429:B *169:14 1.3523e-05
12 *429:C *169:14 0.000100061
13 *460:A2 *169:14 0.000352191
14 *475:A2 *169:14 0.000135016
15 *486:B *556:A 0
16 *4:9 *556:A 0
17 *83:8 *169:14 0.000440593
18 *96:29 *169:14 0.000366525
19 *99:35 *169:14 1.32314e-05
20 *102:32 *169:14 1.08287e-05
21 *107:121 *169:14 4.73585e-05
22 *124:8 *169:14 9.64737e-05
23 *129:21 *556:A 0
24 *135:10 *556:A 7.81176e-05
25 *135:10 *169:14 6.07611e-06
26 *138:12 *169:14 0
27 *143:10 *169:14 4.00781e-05
28 *147:12 *556:A 5.24393e-05
29 *147:12 *169:14 0.000121284
30 *166:16 *169:14 9.34852e-05
31 *166:26 *169:14 2.46906e-05
*RES
1 *495:X *169:6 38 
2 *169:6 *169:14 35.2793 
3 *169:14 *429:D 23 
4 *169:6 *556:A 43.7793 
*END

*D_NET *170 0.00287725
*CONN
*I *430:A I *D sky130_fd_sc_hd__or2_1
*I *557:A I *D sky130_fd_sc_hd__buf_2
*I *512:X O *D sky130_fd_sc_hd__o31a_1
*CAP
1 *430:A 0
2 *557:A 0.000383016
3 *512:X 0.000470678
4 *170:10 0.000853694
5 *557:A *171:24 0
6 *557:A *172:22 0.000246757
7 result[4] *557:A 2.93747e-05
8 result[6] *557:A 3.22879e-05
9 *411:B1 *170:10 0.000318429
10 *500:B *557:A 5.10117e-05
11 *40:16 *557:A 0
12 *40:16 *170:10 0
13 *83:20 *170:10 0
14 *84:8 *557:A 5.80963e-05
15 *93:54 *170:10 0.000358639
16 *147:37 *557:A 9.48381e-06
17 *147:37 *170:10 6.57779e-05
*RES
1 *512:X *170:10 47.0314 
2 *170:10 *557:A 46.7829 
3 *170:10 *430:A 38 
*END

*D_NET *171 0.00315101
*CONN
*I *431:A I *D sky130_fd_sc_hd__nor4_1
*I *558:A I *D sky130_fd_sc_hd__buf_2
*I *528:Y O *D sky130_fd_sc_hd__o211ai_1
*CAP
1 *431:A 0.000138073
2 *558:A 0
3 *528:Y 0.000356121
4 *171:24 0.000213885
5 *171:14 0.000448372
6 *171:10 0.000452534
7 *431:A *172:22 9.84851e-05
8 *171:10 *181:14 6.48049e-05
9 *171:10 *181:68 0.000244517
10 *171:24 *181:14 0
11 *500:B *171:24 3.28227e-05
12 *518:A2 *431:A 9.84851e-05
13 *518:A2 *171:14 2.28212e-05
14 *519:A2 *171:10 6.17437e-06
15 *528:B1 *171:10 0.000188927
16 *557:A *171:24 0
17 *40:10 *431:A 0.000213862
18 *40:10 *171:14 2.32101e-05
19 *43:51 *171:10 2.80924e-06
20 *43:68 *171:10 8.06804e-06
21 *43:68 *171:14 5.70007e-05
22 *44:10 *171:14 0.000321267
23 *145:24 *171:10 7.67018e-05
24 *145:28 *171:10 2.42807e-05
25 *145:40 *171:10 1.00684e-05
26 *148:6 *171:14 4.77213e-05
*RES
1 *528:Y *171:10 45.0221 
2 *171:10 *171:14 18.9564 
3 *171:14 *171:24 33.7286 
4 *171:24 *558:A 23 
5 *171:14 *431:A 27.4329 
*END

*D_NET *172 0.00183194
*CONN
*I *431:B I *D sky130_fd_sc_hd__nor4_1
*I *559:A I *D sky130_fd_sc_hd__buf_2
*I *414:X O *D sky130_fd_sc_hd__o2bb2a_1
*CAP
1 *431:B 0
2 *559:A 0
3 *414:X 0.000160468
4 *172:22 0.000174863
5 *172:14 0.000239808
6 *172:10 0.000225414
7 *418:A1 *172:14 9.5877e-05
8 *431:A *172:22 9.84851e-05
9 *431:D *172:14 0.000139346
10 *431:D *172:22 0.00010018
11 *557:A *172:22 0.000246757
12 *40:10 *172:14 8.52481e-05
13 *40:10 *172:22 2.55136e-05
14 *56:26 *172:10 2.76611e-06
15 *56:26 *172:22 0
16 *67:18 *172:10 9.84851e-05
17 *68:8 *172:10 0.000138727
18 *68:8 *172:22 0
19 *69:8 *172:10 0
*RES
1 *414:X *172:10 41.0036 
2 *172:10 *172:14 17.0507 
3 *172:14 *172:22 34.8886 
4 *172:22 *559:A 23 
5 *172:14 *431:B 23 
*END

*D_NET *173 0.00496417
*CONN
*I *560:A I *D sky130_fd_sc_hd__buf_2
*I *431:C I *D sky130_fd_sc_hd__nor4_1
*I *428:X O *D sky130_fd_sc_hd__o2bb2a_1
*CAP
1 *560:A 0
2 *431:C 0.000342391
3 *428:X 0
4 *173:33 0.000393384
5 *173:12 0.000737856
6 *173:4 0.000788849
7 *431:C *174:10 0.000265466
8 *431:C *182:16 2.44795e-05
9 *173:12 *182:10 5.56306e-05
10 *399:B *431:C 3.28277e-05
11 *408:A2 *173:12 0
12 *418:A1 *431:C 0.000127821
13 *418:B1 *431:C 2.4754e-05
14 *421:A2 *173:33 2.43944e-05
15 *428:A1_N *173:33 1.37702e-05
16 *428:A2_N *173:33 9.67842e-05
17 *428:B1 *173:33 2.30292e-05
18 *433:A2 *173:12 6.02277e-06
19 *529:B *173:12 5.94125e-05
20 *40:10 *431:C 5.67058e-05
21 *54:10 *173:12 0
22 *55:8 *431:C 0.000491451
23 *56:16 *431:C 9.86742e-05
24 *56:26 *431:C 2.64616e-05
25 *61:33 *173:12 4.21378e-05
26 *61:33 *173:33 7.17822e-05
27 *72:18 *173:12 7.80035e-05
28 *72:24 *173:12 0.000162422
29 *73:8 *431:C 0.000662746
30 *73:10 *173:12 5.79216e-05
31 *76:6 *173:33 2.07355e-05
32 *76:21 *173:33 4.06512e-05
33 *77:10 *173:33 4.6318e-06
34 *82:10 *173:33 7.03869e-05
35 *159:10 *173:12 6.25829e-05
*RES
1 *428:X *173:4 23 
2 *173:4 *173:12 38.2857 
3 *173:12 *431:C 36.485 
4 *173:4 *173:33 37.9543 
5 *173:33 *560:A 23 
*END

*D_NET *174 0.000997827
*CONN
*I *561:A I *D sky130_fd_sc_hd__buf_2
*I *431:Y O *D sky130_fd_sc_hd__nor4_1
*CAP
1 *561:A 0
2 *431:Y 0.00030214
3 *174:10 0.00030214
4 *431:C *174:10 0.000265466
5 *56:26 *174:10 4.18032e-05
6 *69:8 *174:10 8.62783e-05
*RES
1 *431:Y *174:10 43.2614 
2 *174:10 *561:A 38 
*END

*D_NET *175 0.00821435
*CONN
*I *435:A I *D sky130_fd_sc_hd__inv_2
*I *492:C I *D sky130_fd_sc_hd__and3b_1
*I *466:A I *D sky130_fd_sc_hd__nand2_1
*I *465:A I *D sky130_fd_sc_hd__or2_1
*I *488:A1_N I *D sky130_fd_sc_hd__o2bb2a_1
*I *475:A1 I *D sky130_fd_sc_hd__o22a_1
*I *460:A1 I *D sky130_fd_sc_hd__a21bo_1
*I *545:X O *D sky130_fd_sc_hd__clkbuf_2
*CAP
1 *435:A 0.000349374
2 *492:C 0
3 *466:A 0
4 *465:A 4.41891e-05
5 *488:A1_N 0.000312844
6 *475:A1 0.000171699
7 *460:A1 0.0002849
8 *545:X 0
9 *175:67 0.000498682
10 *175:57 0.00054822
11 *175:12 0.000513021
12 *175:10 0.000857084
13 *175:8 0.000692603
14 *175:4 0.000460432
15 *460:A2 *460:A1 5.3304e-05
16 *465:B *465:A 0.00010018
17 *465:B *175:67 4.34745e-05
18 *475:A2 *475:A1 1.59071e-05
19 *475:B2 *460:A1 3.64246e-05
20 *475:B2 *175:10 9.03576e-05
21 *475:B2 *175:12 4.69088e-05
22 *476:A1 *488:A1_N 0.000112148
23 *477:B1 *488:A1_N 0.000137651
24 *486:B *175:10 0.00021197
25 *491:A1 *175:67 0.000100061
26 *492:A_N *175:67 7.12098e-05
27 *493:A1 *175:10 0.000117155
28 *504:C1 *175:8 0
29 *556:A *175:8 0
30 *556:A *175:10 0
31 *3:9 *435:A 0.000101762
32 *83:20 *460:A1 2.29192e-05
33 *92:54 *475:A1 1.08287e-05
34 *96:18 *488:A1_N 0.000227209
35 *105:71 *460:A1 0.000194336
36 *105:71 *475:A1 4.05745e-05
37 *105:90 *475:A1 5.50106e-05
38 *106:14 *488:A1_N 1.14154e-05
39 *106:20 *488:A1_N 0.000191068
40 *107:103 *460:A1 0
41 *121:34 *465:A 0.000187129
42 *121:34 *175:67 5.50049e-05
43 *122:29 *175:67 0.000243578
44 *124:8 *460:A1 0
45 *124:8 *175:12 7.76364e-06
46 *125:8 *175:10 8.4047e-05
47 *125:8 *175:12 8.62783e-05
48 *132:20 *175:67 0.000169674
49 *133:29 *175:57 0.000150119
50 *134:18 *175:10 0.000161121
51 *140:10 *175:67 9.03364e-06
52 *141:12 *175:57 2.93985e-05
53 *141:12 *175:67 1.83408e-05
54 *143:10 *175:10 3.72639e-05
55 *151:8 *175:57 0.000185648
56 *152:12 *175:67 0
57 *155:12 *175:67 1.00148e-05
58 *166:16 *460:A1 5.50106e-05
59 *169:14 *175:10 0
*RES
1 *545:X *175:4 23 
2 *175:4 *175:8 16.5536 
3 *175:8 *175:10 10.005 
4 *175:10 *175:12 1.55357 
5 *175:12 *460:A1 42.9093 
6 *175:12 *475:A1 41.0243 
7 *175:10 *488:A1_N 44.8409 
8 *175:8 *175:57 18.0036 
9 *175:57 *175:67 39.6736 
10 *175:67 *465:A 25.0507 
11 *175:67 *466:A 23 
12 *175:57 *492:C 23 
13 *175:4 *435:A 29.38 
*END

*D_NET *176 0.00772725
*CONN
*I *438:A I *D sky130_fd_sc_hd__nor2_2
*I *455:C I *D sky130_fd_sc_hd__and3b_1
*I *457:A I *D sky130_fd_sc_hd__or3_2
*I *487:A1 I *D sky130_fd_sc_hd__o32a_1
*I *444:A I *D sky130_fd_sc_hd__or3b_4
*I *440:A I *D sky130_fd_sc_hd__nor3b_2
*I *445:C I *D sky130_fd_sc_hd__nand3b_4
*I *442:B1 I *D sky130_fd_sc_hd__a221oi_1
*I *447:A I *D sky130_fd_sc_hd__and3_2
*I *441:A I *D sky130_fd_sc_hd__or3b_2
*I *530:X O *D sky130_fd_sc_hd__buf_2
*CAP
1 *438:A 0
2 *455:C 0
3 *457:A 0
4 *487:A1 0.000152986
5 *444:A 0.000155705
6 *440:A 9.98584e-06
7 *445:C 8.37269e-05
8 *442:B1 0.000150989
9 *447:A 0
10 *441:A 0.000103069
11 *530:X 4.38123e-05
12 *176:87 0.000370247
13 *176:83 0.00014551
14 *176:79 0.000348535
15 *176:75 0.000418387
16 *176:53 0.000221756
17 *176:33 6.93456e-05
18 *176:18 0.000474091
19 *176:14 0.000688288
20 *176:10 0.000426896
21 *176:8 0.000260847
22 *441:A *441:B 6.17437e-06
23 *442:B1 *442:C1 1.59094e-05
24 *444:A *444:B 4.32782e-05
25 *445:C *445:B 0
26 *445:C *178:29 8.1796e-05
27 *487:A1 *177:70 0
28 *487:A1 *177:76 0
29 *487:A1 *178:102 0
30 *176:10 *177:10 5.93983e-05
31 *176:14 *442:C1 2.71291e-05
32 *176:14 *177:10 2.60152e-05
33 *176:14 *177:12 6.737e-05
34 *176:14 *184:53 6.16531e-05
35 *176:18 *441:B 0.000329106
36 *176:18 *177:37 0.000130423
37 *176:33 *177:82 6.4393e-05
38 *176:53 *178:27 4.67488e-05
39 *176:53 *178:29 2.18409e-05
40 *176:75 *457:C 0
41 *176:75 *178:94 0.000185428
42 *176:79 *457:C 0.000184527
43 *176:79 *178:94 0.000118217
44 *176:83 *457:C 0.000143655
45 *454:C_N *176:10 0.000130433
46 *454:C_N *176:14 0.000287592
47 *456:A *176:75 5.3304e-05
48 *21:11 *176:8 0.000141888
49 *21:11 *176:10 5.09072e-05
50 *92:16 *176:14 4.98718e-06
51 *94:10 *176:18 4.6595e-05
52 *96:10 *444:A 2.4754e-05
53 *97:8 *176:33 0.000138718
54 *105:8 *176:18 0.000267173
55 *105:90 *444:A 0.000199183
56 *105:90 *487:A1 0.00021382
57 *106:6 *176:83 9.84851e-05
58 *106:14 *176:83 1.83444e-05
59 *106:14 *176:87 9.54312e-05
60 *106:79 *444:A 3.21223e-05
61 *130:8 *487:A1 0
62 *131:27 *487:A1 6.07611e-06
63 *161:10 *442:B1 1.36806e-05
64 *163:12 *176:8 0.000131744
65 *163:12 *176:10 3.47781e-05
*RES
1 *530:X *176:8 39.9057 
2 *176:8 *176:10 2.25786 
3 *176:10 *176:14 19.7229 
4 *176:14 *176:18 8.265 
5 *176:18 *441:A 24.595 
6 *176:18 *176:33 31.9057 
7 *176:33 *447:A 23 
8 *176:14 *442:B1 25.0714 
9 *176:10 *176:53 17.0714 
10 *176:53 *445:C 25.0714 
11 *176:53 *440:A 23.4971 
12 *176:8 *176:75 18.5007 
13 *176:75 *176:79 5.88286 
14 *176:79 *176:83 2.54786 
15 *176:83 *176:87 16.5743 
16 *176:87 *444:A 41.8736 
17 *176:87 *487:A1 41.3143 
18 *176:83 *457:A 23 
19 *176:79 *455:C 23 
20 *176:75 *438:A 23 
*END

*D_NET *177 0.00785232
*CONN
*I *437:A I *D sky130_fd_sc_hd__nand2_1
*I *455:B I *D sky130_fd_sc_hd__and3b_1
*I *457:B I *D sky130_fd_sc_hd__or3_2
*I *445:A_N I *D sky130_fd_sc_hd__nand3b_4
*I *444:C_N I *D sky130_fd_sc_hd__or3b_4
*I *447:B I *D sky130_fd_sc_hd__and3_2
*I *440:B I *D sky130_fd_sc_hd__nor3b_2
*I *454:A I *D sky130_fd_sc_hd__or3b_2
*I *441:B I *D sky130_fd_sc_hd__or3b_2
*I *442:C1 I *D sky130_fd_sc_hd__a221oi_1
*I *531:X O *D sky130_fd_sc_hd__clkbuf_2
*CAP
1 *437:A 3.55693e-05
2 *455:B 0
3 *457:B 9.59753e-05
4 *445:A_N 0
5 *444:C_N 4.996e-05
6 *447:B 0
7 *440:B 0
8 *454:A 0
9 *441:B 0.00028201
10 *442:C1 0.000168089
11 *531:X 9.98944e-05
12 *177:103 0.000141835
13 *177:82 0.000307162
14 *177:76 0.000619966
15 *177:70 0.000401398
16 *177:66 0.000486955
17 *177:37 0.000516764
18 *177:12 0.000492316
19 *177:10 0.000223661
20 *177:6 0.000592776
21 *444:C_N *178:33 5.41288e-05
22 *457:B *457:C 5.83407e-05
23 *177:37 *454:B 1.01436e-05
24 *177:70 *178:102 0.000136486
25 *177:76 *178:33 4.79641e-05
26 *177:76 *178:102 3.70094e-05
27 *177:103 *457:C 1.40958e-05
28 *441:A *441:B 6.17437e-06
29 *442:B1 *442:C1 1.59094e-05
30 *454:C_N *177:37 8.4047e-05
31 *456:B *177:10 0.000141869
32 *487:A1 *177:70 0
33 *487:A1 *177:76 0
34 *487:A2 *437:A 1.42218e-05
35 *487:A2 *177:66 6.17437e-06
36 *530:A *177:66 5.50049e-05
37 *532:A *177:10 7.75771e-06
38 *21:11 *177:10 0.000183171
39 *89:21 *177:66 0.000170529
40 *89:21 *177:76 0
41 *90:8 *177:37 0
42 *90:8 *177:76 0
43 *92:8 *177:10 3.92407e-05
44 *92:8 *177:12 5.15096e-05
45 *92:16 *442:C1 5.94125e-05
46 *92:16 *177:12 0.000107508
47 *94:10 *441:B 5.50106e-05
48 *94:10 *177:37 0.000141954
49 *97:8 *177:82 0.000109927
50 *106:79 *177:76 0
51 *106:79 *177:82 0.00015652
52 *107:79 *437:A 5.29255e-05
53 *107:79 *177:6 1.61361e-05
54 *107:79 *177:66 0.000401273
55 *161:10 *441:B 4.91851e-05
56 *161:10 *442:C1 9.5877e-05
57 *161:10 *177:10 7.61285e-05
58 *161:10 *177:37 0.000178517
59 *176:10 *177:10 5.93983e-05
60 *176:14 *442:C1 2.71291e-05
61 *176:14 *177:10 2.60152e-05
62 *176:14 *177:12 6.737e-05
63 *176:18 *441:B 0.000329106
64 *176:18 *177:37 0.000130423
65 *176:33 *177:82 6.4393e-05
*RES
1 *531:X *177:6 24.0979 
2 *177:6 *177:10 19.7229 
3 *177:10 *177:12 2.25786 
4 *177:12 *442:C1 41.3971 
5 *177:12 *177:37 49.8264 
6 *177:37 *441:B 29.8771 
7 *177:37 *454:A 23 
8 *177:10 *440:B 38 
9 *177:6 *177:66 9.57 
10 *177:66 *177:70 16.9057 
11 *177:70 *177:76 19.7643 
12 *177:76 *177:82 36.8357 
13 *177:82 *447:B 23 
14 *177:76 *444:C_N 24.0979 
15 *177:76 *445:A_N 23 
16 *177:70 *177:103 15.6214 
17 *177:103 *457:B 24.5743 
18 *177:103 *455:B 23 
19 *177:66 *437:A 24.0771 
*END

*D_NET *178 0.00897948
*CONN
*I *440:C_N I *D sky130_fd_sc_hd__nor3b_2
*I *455:A_N I *D sky130_fd_sc_hd__and3b_1
*I *457:C I *D sky130_fd_sc_hd__or3_2
*I *437:B I *D sky130_fd_sc_hd__nand2_1
*I *454:B I *D sky130_fd_sc_hd__or3b_2
*I *445:B I *D sky130_fd_sc_hd__nand3b_4
*I *441:C_N I *D sky130_fd_sc_hd__or3b_2
*I *447:C I *D sky130_fd_sc_hd__and3_2
*I *444:B I *D sky130_fd_sc_hd__or3b_4
*I *442:B2 I *D sky130_fd_sc_hd__a221oi_1
*I *532:X O *D sky130_fd_sc_hd__buf_2
*CAP
1 *440:C_N 0
2 *455:A_N 0
3 *457:C 0.000112291
4 *437:B 0
5 *454:B 0.000239402
6 *445:B 2.34823e-05
7 *441:C_N 0
8 *447:C 0.000147189
9 *444:B 7.25139e-05
10 *442:B2 0.0002013
11 *532:X 0.000268924
12 *178:102 0.000183121
13 *178:94 0.000686639
14 *178:73 0.000630629
15 *178:46 0.00024402
16 *178:33 0.000379177
17 *178:29 0.000345819
18 *178:27 0.000369729
19 *178:23 0.000257224
20 *178:8 0.000470224
21 *447:C *184:24 0.000182826
22 *444:A *444:B 4.32782e-05
23 *444:C_N *178:33 5.41288e-05
24 *445:C *445:B 0
25 *445:C *178:29 8.1796e-05
26 *454:C_N *454:B 9.33741e-05
27 *454:C_N *178:94 0.000219891
28 *457:B *457:C 5.83407e-05
29 *487:A1 *178:102 0
30 *532:A *178:8 0.000183286
31 *89:21 *178:94 0
32 *89:21 *178:102 0
33 *90:8 *454:B 0
34 *90:8 *178:94 0
35 *92:16 *442:B2 2.49733e-05
36 *92:54 *444:B 0.000194723
37 *92:54 *178:27 0.000206946
38 *92:54 *178:29 0.000328926
39 *92:54 *178:33 0.000522694
40 *93:27 *447:C 4.96264e-05
41 *96:10 *444:B 2.31797e-05
42 *96:10 *178:33 2.45549e-06
43 *105:90 *444:B 1.65699e-05
44 *106:79 *447:C 0.000191148
45 *106:79 *178:46 0.000166504
46 *107:14 *442:B2 1.60633e-05
47 *107:14 *178:8 4.83778e-05
48 *107:79 *178:8 0.000100967
49 *108:14 *447:C 0
50 *108:14 *178:46 0
51 *133:12 *178:102 0
52 *153:18 *447:C 0.000181125
53 *161:10 *442:B2 0.00017015
54 *161:10 *454:B 0.00010018
55 *161:10 *178:8 9.08847e-05
56 *163:12 *178:94 4.92689e-05
57 *176:53 *178:27 4.67488e-05
58 *176:53 *178:29 2.18409e-05
59 *176:75 *457:C 0
60 *176:75 *178:94 0.000185428
61 *176:79 *457:C 0.000184527
62 *176:79 *178:94 0.000118217
63 *176:83 *457:C 0.000143655
64 *177:37 *454:B 1.01436e-05
65 *177:70 *178:102 0.000136486
66 *177:76 *178:33 4.79641e-05
67 *177:76 *178:102 3.70094e-05
68 *177:103 *457:C 1.40958e-05
*RES
1 *532:X *178:8 45.54 
2 *178:8 *442:B2 42.0807 
3 *178:8 *178:23 15 
4 *178:23 *178:27 4.45357 
5 *178:27 *178:29 3.95643 
6 *178:29 *178:33 6.35929 
7 *178:33 *444:B 25.5479 
8 *178:33 *178:46 17.2579 
9 *178:46 *447:C 42.6607 
10 *178:46 *441:C_N 38 
11 *178:29 *445:B 23.4971 
12 *178:27 *178:73 15 
13 *178:73 *454:B 41.77 
14 *178:73 *178:94 24.0521 
15 *178:94 *178:102 33.7079 
16 *178:102 *437:B 23 
17 *178:94 *457:C 27.3293 
18 *178:94 *455:A_N 23 
19 *178:23 *440:C_N 23 
*END

*D_NET *179 0.00830251
*CONN
*I *484:A I *D sky130_fd_sc_hd__xnor2_2
*I *503:B I *D sky130_fd_sc_hd__and2b_1
*I *482:A I *D sky130_fd_sc_hd__nor2_1
*I *481:A I *D sky130_fd_sc_hd__nand2_1
*I *480:A I *D sky130_fd_sc_hd__and2_1
*I *474:A1 I *D sky130_fd_sc_hd__a22o_1
*I *489:B2 I *D sky130_fd_sc_hd__o2bb2a_1
*I *511:A1 I *D sky130_fd_sc_hd__a211o_1
*I *546:X O *D sky130_fd_sc_hd__buf_2
*CAP
1 *484:A 0.000204627
2 *503:B 0
3 *482:A 5.41689e-05
4 *481:A 1.54013e-05
5 *480:A 0
6 *474:A1 0.000251625
7 *489:B2 0.000176929
8 *511:A1 0
9 *546:X 0.000154404
10 *179:84 0.000260429
11 *179:64 9.1082e-05
12 *179:57 0.000138827
13 *179:30 0.000598716
14 *179:22 0.00125606
15 *179:16 0.00124112
16 *179:10 0.000721298
17 *179:8 0.000305116
18 *179:30 *181:102 0
19 *407:A2 *179:30 4.53539e-05
20 *480:B *481:A 4.00259e-06
21 *480:B *482:A 4.95081e-05
22 *480:B *179:57 5.70419e-05
23 *480:B *179:64 2.4754e-05
24 *482:B *482:A 3.81946e-05
25 *489:A2_N *179:22 2.46922e-05
26 *493:B1 *179:57 1.40958e-05
27 *503:A_N *484:A 0.000139346
28 *511:A2 *179:30 1.82421e-05
29 *511:B1 *179:30 0.000459621
30 *556:A *179:8 0
31 *91:22 *179:22 8.78464e-05
32 *93:14 *179:16 0.00026722
33 *93:14 *179:22 1.19692e-05
34 *96:10 *179:16 8.16356e-05
35 *96:65 *489:B2 8.93008e-05
36 *98:10 *179:22 7.461e-05
37 *99:35 *474:A1 6.04336e-05
38 *99:53 *179:22 7.27897e-05
39 *99:66 *179:22 6.43108e-05
40 *99:66 *179:30 0.000101564
41 *99:72 *179:30 2.47015e-05
42 *107:121 *179:16 0
43 *108:14 *179:22 0
44 *108:14 *179:30 0
45 *129:6 *179:57 2.93845e-05
46 *129:21 *179:8 2.70366e-05
47 *129:21 *179:10 3.71611e-05
48 *129:21 *179:16 3.3123e-05
49 *131:14 *482:A 5.25848e-05
50 *131:14 *484:A 7.42621e-05
51 *131:14 *179:8 0
52 *131:14 *179:10 0
53 *131:14 *179:84 5.41385e-05
54 *132:8 *179:10 8.62876e-05
55 *133:23 *484:A 1.5769e-05
56 *137:10 *179:16 0.000169674
57 *138:12 *179:16 0.000240905
58 *138:12 *179:22 0.000183823
59 *146:93 *179:22 0
60 *146:93 *179:30 0
61 *153:18 *179:22 0
62 *156:8 *179:8 0
63 *156:12 *179:10 0
64 *156:12 *179:16 0
65 *156:14 *481:A 5.90675e-06
66 *156:14 *482:A 1.14154e-05
67 *169:14 *179:16 0
*RES
1 *546:X *179:8 40.61 
2 *179:8 *179:10 2.25786 
3 *179:10 *179:16 12.8843 
4 *179:16 *179:22 9.715 
5 *179:22 *179:30 27.1386 
6 *179:30 *511:A1 23 
7 *179:22 *489:B2 40.5271 
8 *179:16 *474:A1 41.48 
9 *179:10 *179:57 17.5271 
10 *179:57 *480:A 23 
11 *179:57 *179:64 0.621429 
12 *179:64 *481:A 23.4971 
13 *179:64 *482:A 25.0714 
14 *179:8 *179:84 16.0979 
15 *179:84 *503:B 23 
16 *179:84 *484:A 27.3293 
*END

*D_NET *180 0.00801067
*CONN
*I *508:A I *D sky130_fd_sc_hd__nor2_1
*I *489:A1_N I *D sky130_fd_sc_hd__o2bb2a_1
*I *521:A1_N I *D sky130_fd_sc_hd__o2bb2a_1
*I *497:A I *D sky130_fd_sc_hd__nand2_2
*I *496:A I *D sky130_fd_sc_hd__or2_1
*I *436:A I *D sky130_fd_sc_hd__inv_2
*I *526:C I *D sky130_fd_sc_hd__and3b_1
*I *547:X O *D sky130_fd_sc_hd__clkbuf_2
*CAP
1 *508:A 0
2 *489:A1_N 0.000233821
3 *521:A1_N 5.53878e-05
4 *497:A 1.75705e-05
5 *496:A 0
6 *436:A 0
7 *526:C 0.000401228
8 *547:X 5.45698e-05
9 *180:66 0.00119218
10 *180:54 0.00130178
11 *180:39 0.000479933
12 *180:32 0.000199798
13 *180:10 0.000485233
14 *180:6 0.000274821
15 *521:A1_N *181:94 0.000136369
16 *509:A2 *521:A1_N 0.000138076
17 *509:B1 *180:39 0.00014196
18 *509:B1 *180:54 0.000295609
19 *521:B1 *489:A1_N 1.3822e-05
20 *521:B1 *180:66 7.57281e-06
21 *526:A_N *526:C 6.7063e-05
22 *526:B *526:C 4.04598e-06
23 *547:A *180:10 9.86551e-06
24 *13:17 *526:C 0
25 *37:10 *489:A1_N 0.000147206
26 *37:10 *180:66 2.05503e-05
27 *39:35 *180:66 0
28 *47:12 *180:66 2.384e-05
29 *90:50 *180:66 2.33476e-05
30 *91:22 *489:A1_N 0.000272383
31 *92:81 *180:54 0.000400198
32 *96:37 *489:A1_N 1.01436e-05
33 *96:48 *489:A1_N 5.3304e-05
34 *96:54 *489:A1_N 0.000138718
35 *96:65 *489:A1_N 0.000328849
36 *97:62 *180:54 3.81033e-05
37 *105:34 *489:A1_N 2.24973e-05
38 *106:41 *489:A1_N 3.95159e-06
39 *138:8 *489:A1_N 2.4754e-05
40 *144:14 *180:39 5.3304e-05
41 *145:8 *180:39 5.50106e-05
42 *145:20 *526:C 0
43 *146:16 *180:54 9.84794e-05
44 *146:93 *489:A1_N 1.17152e-05
45 *152:23 *180:54 0.000177899
46 *157:6 *526:C 1.94812e-05
47 *157:12 *526:C 0.000197479
48 *157:12 *180:10 0.000138718
49 *157:23 *497:A 1.14154e-05
50 *157:23 *180:32 3.76702e-05
51 *157:23 *180:39 9.74625e-05
52 *157:23 *180:54 3.84772e-05
53 *157:36 *180:54 5.50049e-05
*RES
1 *547:X *180:6 23.6214 
2 *180:6 *180:10 16.9057 
3 *180:10 *526:C 46.0993 
4 *180:10 *436:A 38 
5 *180:6 *180:32 2.07143 
6 *180:32 *496:A 23 
7 *180:32 *180:39 2.52714 
8 *180:39 *497:A 23.4971 
9 *180:39 *180:54 12.5943 
10 *180:54 *180:66 33.072 
11 *180:66 *521:A1_N 39.5898 
12 *180:66 *489:A1_N 45.4416 
13 *180:54 *508:A 23 
*END

*D_NET *181 0.00864772
*CONN
*I *509:A1 I *D sky130_fd_sc_hd__a221o_1
*I *522:B2 I *D sky130_fd_sc_hd__o2bb2a_1
*I *407:B2 I *D sky130_fd_sc_hd__a22o_1
*I *401:B I *D sky130_fd_sc_hd__nand2b_1
*I *515:A I *D sky130_fd_sc_hd__or2_1
*I *513:A I *D sky130_fd_sc_hd__nand2_1
*I *514:A I *D sky130_fd_sc_hd__nor2_1
*I *548:X O *D sky130_fd_sc_hd__clkbuf_2
*CAP
1 *509:A1 0
2 *522:B2 0
3 *407:B2 0
4 *401:B 0
5 *515:A 0
6 *513:A 8.42174e-05
7 *514:A 1.85875e-05
8 *548:X 0.000527764
9 *181:102 0.000138965
10 *181:94 0.000737634
11 *181:68 0.00144937
12 *181:39 0.000189448
13 *181:37 0.000325
14 *181:18 0.000277865
15 *181:14 0.00141797
16 *181:94 *522:A1_N 0.000181633
17 *181:102 *182:51 6.07611e-06
18 *407:A2 *181:102 8.55553e-05
19 *502:A1 *181:68 0
20 *509:A2 *181:94 0.000326843
21 *509:B1 *181:94 3.7681e-05
22 *513:B *513:A 8.01689e-05
23 *513:B *181:39 0.00010018
24 *520:A2_N *181:68 0
25 *521:A1_N *181:94 0.000136369
26 *36:16 *181:68 0
27 *36:16 *181:94 2.69465e-05
28 *38:8 *181:68 0
29 *41:8 *181:37 0
30 *44:10 *181:18 1.59094e-05
31 *44:10 *181:37 6.51985e-05
32 *48:14 *181:68 2.33476e-05
33 *48:14 *181:94 0.000459094
34 *49:10 *181:68 0.000520627
35 *83:20 *181:68 0
36 *83:20 *181:94 5.29353e-05
37 *90:35 *181:68 0.000166513
38 *90:50 *181:68 0.000174081
39 *99:66 *181:102 2.66127e-05
40 *107:39 *181:102 5.67058e-05
41 *108:14 *181:102 5.51325e-05
42 *145:24 *181:68 4.49946e-05
43 *146:57 *181:68 0
44 *150:10 *181:68 0.000137216
45 *158:14 *181:14 8.82957e-05
46 *158:18 *181:37 2.93335e-05
47 *158:20 *181:37 2.31687e-05
48 *158:29 *513:A 0
49 *158:29 *514:A 1.11037e-05
50 *158:29 *181:37 6.61858e-05
51 *158:29 *181:39 0.000173668
52 *171:10 *181:14 6.48049e-05
53 *171:10 *181:68 0.000244517
54 *171:24 *181:14 0
55 *179:30 *181:102 0
*RES
1 *548:X *181:14 44.2557 
2 *181:14 *181:18 15.6214 
3 *181:18 *514:A 23.4971 
4 *181:18 *181:37 33.5473 
5 *181:37 *181:39 2.99839 
6 *181:39 *513:A 25.5686 
7 *181:39 *515:A 23 
8 *181:37 *401:B 23 
9 *181:14 *181:68 31.1986 
10 *181:68 *181:94 44.5414 
11 *181:94 *181:102 33.2314 
12 *181:102 *407:B2 23 
13 *181:94 *522:B2 23 
14 *181:68 *509:A1 23 
*END

*D_NET *182 0.00649547
*CONN
*I *420:B I *D sky130_fd_sc_hd__and2b_1
*I *399:A I *D sky130_fd_sc_hd__nand2_1
*I *529:A I *D sky130_fd_sc_hd__or2_1
*I *426:B2 I *D sky130_fd_sc_hd__a2bb2o_1
*I *406:A1 I *D sky130_fd_sc_hd__o22a_1
*I *522:A1_N I *D sky130_fd_sc_hd__o2bb2a_1
*I *549:X O *D sky130_fd_sc_hd__buf_1
*CAP
1 *420:B 4.605e-05
2 *399:A 0
3 *529:A 0
4 *426:B2 0
5 *406:A1 0
6 *522:A1_N 0.000172237
7 *549:X 0.000456357
8 *182:51 0.000143209
9 *182:32 0.000461939
10 *182:30 0.000761522
11 *182:20 0.000669118
12 *182:16 0.000179041
13 *182:12 0.000171001
14 *182:10 0.000456357
15 *182:30 *407:A1 5.0135e-05
16 *399:B *420:B 5.43208e-06
17 *399:B *182:16 5.59984e-05
18 *407:B1 *182:30 5.21127e-05
19 *408:A2 *182:30 0.000130451
20 *422:A *182:10 5.2894e-05
21 *422:B *182:10 2.88036e-05
22 *431:C *182:16 2.44795e-05
23 *509:A2 *522:A1_N 1.86516e-05
24 *522:B1 *522:A1_N 2.4754e-05
25 *522:B1 *182:30 5.50049e-05
26 *522:B1 *182:32 0.000302823
27 *529:B *182:16 0.000153369
28 *529:B *182:20 3.06608e-05
29 *529:B *182:30 0
30 *54:10 *182:30 0.000102598
31 *55:8 *182:16 2.4754e-05
32 *55:8 *182:20 0.000143655
33 *55:8 *182:30 9.90162e-05
34 *55:36 *182:30 9.9725e-05
35 *56:16 *182:30 0.000167452
36 *56:42 *182:30 5.93365e-05
37 *63:10 *182:30 0.000169665
38 *64:8 *182:30 0.000299187
39 *72:24 *182:10 2.45549e-06
40 *73:8 *182:16 2.65879e-05
41 *73:10 *182:10 0.000111852
42 *77:10 *182:10 6.71408e-06
43 *79:10 *182:30 0
44 *97:44 *182:51 3.92407e-05
45 *99:66 *182:51 0
46 *105:24 *182:30 2.18409e-05
47 *105:24 *182:32 0.000110533
48 *106:79 *182:30 1.83564e-05
49 *108:14 *182:51 0.000246757
50 *173:12 *182:10 5.56306e-05
51 *181:94 *522:A1_N 0.000181633
52 *181:102 *182:51 6.07611e-06
*RES
1 *549:X *182:10 44.9393 
2 *182:10 *182:12 15 
3 *182:12 *182:16 3.50071 
4 *182:16 *182:20 2.07143 
5 *182:20 *182:30 46.1986 
6 *182:30 *182:32 3.48 
7 *182:32 *522:A1_N 27.1584 
8 *182:32 *182:51 33.3143 
9 *182:51 *406:A1 23 
10 *182:30 *426:B2 23 
11 *182:20 *529:A 23 
12 *182:16 *399:A 23 
13 *182:12 *420:B 24.2014 
*END

*D_NET *183 0.00521659
*CONN
*I *415:A I *D sky130_fd_sc_hd__or2_1
*I *416:A I *D sky130_fd_sc_hd__nand2_1
*I *426:A1_N I *D sky130_fd_sc_hd__a2bb2o_1
*I *407:A1 I *D sky130_fd_sc_hd__a22o_1
*I *432:B I *D sky130_fd_sc_hd__nand2b_1
*I *550:X O *D sky130_fd_sc_hd__clkbuf_1
*CAP
1 *415:A 9.55183e-05
2 *416:A 1.64097e-05
3 *426:A1_N 0
4 *407:A1 0.000320976
5 *432:B 8.87109e-06
6 *550:X 0.000210522
7 *183:35 0.000708841
8 *183:29 0.000691872
9 *183:12 0.000441799
10 *183:10 0.000451371
11 *407:A2 *407:A1 5.3304e-05
12 *407:B1 *407:A1 0.00017761
13 *415:B *183:12 1.02387e-05
14 *416:B *416:A 2.02517e-05
15 *416:B *183:29 0.000193036
16 *417:A *183:12 0.000305509
17 *424:A *183:35 5.3304e-05
18 *424:B *416:A 0
19 *424:B *183:29 2.44913e-05
20 *424:B *183:35 0.000126847
21 *428:A1_N *183:10 3.96053e-05
22 *70:8 *415:A 0.00010655
23 *70:12 *183:10 3.70094e-05
24 *70:12 *183:12 0.000129504
25 *76:21 *183:10 0
26 *76:21 *183:12 0
27 *79:10 *407:A1 0
28 *79:10 *183:35 0
29 *81:8 *407:A1 5.31444e-05
30 *82:10 *183:10 8.4047e-05
31 *86:10 *415:A 3.22879e-05
32 *86:10 *183:12 0.000116314
33 *90:10 *183:29 0
34 *92:16 *183:12 0.000134585
35 *92:16 *183:29 2.71291e-05
36 *97:8 *183:35 7.70737e-05
37 *97:14 *183:35 0.000167452
38 *106:79 *183:35 0
39 *107:39 *407:A1 0.000183098
40 *160:21 *432:B 1.28818e-05
41 *160:21 *183:29 5.50049e-05
42 *182:30 *407:A1 5.0135e-05
*RES
1 *550:X *183:10 41.3557 
2 *183:10 *183:12 5.77929 
3 *183:12 *432:B 38.1502 
4 *183:12 *183:29 19.8264 
5 *183:29 *183:35 22.6229 
6 *183:35 *407:A1 44.6907 
7 *183:35 *426:A1_N 38 
8 *183:29 *416:A 23.4971 
9 *183:10 *415:A 40.6721 
*END

*D_NET *184 0.00385126
*CONN
*I *442:A2 I *D sky130_fd_sc_hd__a221oi_1
*I *443:A2 I *D sky130_fd_sc_hd__o22a_1
*I *451:B I *D sky130_fd_sc_hd__nand2b_1
*I *439:B I *D sky130_fd_sc_hd__nand2_1
*I *551:X O *D sky130_fd_sc_hd__clkbuf_1
*CAP
1 *442:A2 0
2 *443:A2 0
3 *451:B 0.00010951
4 *439:B 0
5 *551:X 5.11113e-05
6 *184:53 0.000142979
7 *184:24 0.000390807
8 *184:18 0.000455215
9 *184:12 0.000469724
10 *184:8 0.000203939
11 *439:A *451:B 5.3304e-05
12 *447:C *184:24 0.000182826
13 *533:A *184:8 4.08537e-05
14 *90:10 *184:53 0
15 *92:16 *184:8 4.08537e-05
16 *92:16 *184:53 5.55278e-05
17 *94:10 *184:53 0
18 *95:8 *451:B 6.82471e-05
19 *95:8 *184:24 0.000654145
20 *153:6 *184:12 2.98648e-05
21 *153:8 *184:12 1.94812e-05
22 *153:8 *184:18 7.99724e-05
23 *153:18 *451:B 0.000137651
24 *153:18 *184:18 5.67058e-05
25 *153:18 *184:24 0.000380368
26 *153:67 *184:53 0.000166522
27 *176:14 *184:53 6.16531e-05
*RES
1 *551:X *184:8 39.2014 
2 *184:8 *184:12 17.0507 
3 *184:12 *184:18 3.52143 
4 *184:18 *184:24 10.3157 
5 *184:24 *439:B 23 
6 *184:24 *451:B 26.1952 
7 *184:18 *443:A2 23 
8 *184:12 *184:53 33.6664 
9 *184:53 *442:A2 23 
*END
