*SPEF "ieee 1481-1999"
*DESIGN "alu_8bit"
*DATE "15:46:21 Thursday August 20, 2026"
*VENDOR "The OpenROAD Project"
*PROGRAM "OpenROAD"
*VERSION "edf00dff99f6c40d67a30c0e22a8191c5d2ed9d6"
*DESIGN_FLOW "NAME_SCOPE LOCAL" "PIN_CAP NONE"
*DIVIDER /
*DELIMITER :
*BUS_DELIMITER []
*T_UNIT 1 NS
*C_UNIT 1 PF
*R_UNIT 1 OHM
*L_UNIT 1 HENRY

*NAME_MAP
*1 A[0]
*2 A[1]
*3 A[2]
*4 A[3]
*5 A[4]
*6 A[5]
*7 A[6]
*8 A[7]
*9 B[0]
*10 B[1]
*11 B[2]
*12 B[3]
*13 B[4]
*14 B[5]
*15 B[6]
*16 B[7]
*19 carry
*20 opcode[0]
*21 opcode[1]
*22 opcode[2]
*23 result[0]
*24 result[1]
*25 result[2]
*26 result[3]
*27 result[4]
*28 result[5]
*29 result[6]
*30 result[7]
*31 zero
*32 _000_
*33 _001_
*34 _002_
*35 _003_
*36 _004_
*37 _005_
*38 _006_
*39 _007_
*40 _008_
*41 _009_
*42 _010_
*43 _011_
*44 _012_
*45 _013_
*46 _014_
*47 _015_
*48 _016_
*49 _017_
*50 _018_
*51 _019_
*52 _020_
*53 _021_
*54 _022_
*55 _023_
*56 _024_
*57 _025_
*58 _026_
*59 _027_
*60 _028_
*61 _029_
*62 _030_
*63 _031_
*64 _032_
*65 _033_
*66 _034_
*67 _035_
*68 _036_
*69 _037_
*70 _038_
*71 _039_
*72 _040_
*73 _041_
*74 _042_
*75 _043_
*76 _044_
*77 _045_
*78 _046_
*79 _047_
*80 _048_
*81 _049_
*82 _050_
*83 _051_
*84 _052_
*85 _053_
*86 _054_
*87 _055_
*88 _056_
*89 _057_
*90 _058_
*91 _059_
*92 _060_
*93 _061_
*94 _062_
*95 _063_
*96 _064_
*97 _065_
*98 _066_
*99 _067_
*100 _068_
*101 _069_
*102 _070_
*103 _071_
*104 _072_
*105 _073_
*106 _074_
*107 _075_
*108 _076_
*109 _077_
*110 _078_
*111 _079_
*112 _080_
*113 _081_
*114 _082_
*115 _083_
*116 _084_
*117 _085_
*118 _086_
*119 _087_
*120 _088_
*121 _089_
*122 _090_
*123 _091_
*124 _092_
*125 _093_
*126 _094_
*127 _095_
*128 _096_
*129 _097_
*130 _098_
*131 _099_
*132 _100_
*133 _101_
*134 _102_
*135 _103_
*136 _104_
*137 _105_
*138 _106_
*139 _107_
*140 _108_
*141 _109_
*142 _110_
*143 _111_
*144 _112_
*145 _113_
*146 _114_
*147 _115_
*148 _116_
*149 _117_
*150 _118_
*151 _119_
*152 _120_
*153 net1
*154 net10
*155 net11
*156 net12
*157 net13
*158 net14
*159 net15
*160 net16
*161 net17
*162 net18
*163 net19
*164 net2
*165 net20
*166 net21
*167 net22
*168 net23
*169 net24
*170 net25
*171 net26
*172 net27
*173 net28
*174 net29
*175 net3
*176 net30
*177 net31
*178 net32
*179 net4
*180 net5
*181 net6
*182 net7
*183 net8
*184 net9
*185 FILLER_0_102
*186 FILLER_0_15
*187 FILLER_0_27
*188 FILLER_0_29
*189 FILLER_0_3
*190 FILLER_0_34
*191 FILLER_0_42
*192 FILLER_0_57
*193 FILLER_0_71
*194 FILLER_0_83
*195 FILLER_0_85
*196 FILLER_0_90
*197 FILLER_10_102
*198 FILLER_10_22
*199 FILLER_10_29
*200 FILLER_10_3
*201 FILLER_10_33
*202 FILLER_10_40
*203 FILLER_10_57
*204 FILLER_10_69
*205 FILLER_10_80
*206 FILLER_11_102
*207 FILLER_11_11
*208 FILLER_11_20
*209 FILLER_11_32
*210 FILLER_11_40
*211 FILLER_11_49
*212 FILLER_11_55
*213 FILLER_11_57
*214 FILLER_11_65
*215 FILLER_12_27
*216 FILLER_12_29
*217 FILLER_12_3
*218 FILLER_12_46
*219 FILLER_12_54
*220 FILLER_12_65
*221 FILLER_12_69
*222 FILLER_12_83
*223 FILLER_13_101
*224 FILLER_13_15
*225 FILLER_13_21
*226 FILLER_13_27
*227 FILLER_13_3
*228 FILLER_13_45
*229 FILLER_13_53
*230 FILLER_13_57
*231 FILLER_13_62
*232 FILLER_13_68
*233 FILLER_13_77
*234 FILLER_13_81
*235 FILLER_14_15
*236 FILLER_14_3
*237 FILLER_14_47
*238 FILLER_14_59
*239 FILLER_14_73
*240 FILLER_14_81
*241 FILLER_14_85
*242 FILLER_15_100
*243 FILLER_15_15
*244 FILLER_15_27
*245 FILLER_15_3
*246 FILLER_15_44
*247 FILLER_15_54
*248 FILLER_15_57
*249 FILLER_15_80
*250 FILLER_15_92
*251 FILLER_16_15
*252 FILLER_16_27
*253 FILLER_16_29
*254 FILLER_16_3
*255 FILLER_16_37
*256 FILLER_16_49
*257 FILLER_16_57
*258 FILLER_16_63
*259 FILLER_16_76
*260 FILLER_16_85
*261 FILLER_16_97
*262 FILLER_1_100
*263 FILLER_1_15
*264 FILLER_1_3
*265 FILLER_1_39
*266 FILLER_1_51
*267 FILLER_1_55
*268 FILLER_1_62
*269 FILLER_1_73
*270 FILLER_1_77
*271 FILLER_1_92
*272 FILLER_2_15
*273 FILLER_2_27
*274 FILLER_2_29
*275 FILLER_2_3
*276 FILLER_2_57
*277 FILLER_2_63
*278 FILLER_2_82
*279 FILLER_2_85
*280 FILLER_2_99
*281 FILLER_3_102
*282 FILLER_3_15
*283 FILLER_3_25
*284 FILLER_3_3
*285 FILLER_3_37
*286 FILLER_3_50
*287 FILLER_3_57
*288 FILLER_3_65
*289 FILLER_3_75
*290 FILLER_3_83
*291 FILLER_4_10
*292 FILLER_4_27
*293 FILLER_4_34
*294 FILLER_4_47
*295 FILLER_4_59
*296 FILLER_4_6
*297 FILLER_4_81
*298 FILLER_4_85
*299 FILLER_4_93
*300 FILLER_5_102
*301 FILLER_5_28
*302 FILLER_5_3
*303 FILLER_5_45
*304 FILLER_5_53
*305 FILLER_5_57
*306 FILLER_5_65
*307 FILLER_5_74
*308 FILLER_5_82
*309 FILLER_6_101
*310 FILLER_6_17
*311 FILLER_6_25
*312 FILLER_6_29
*313 FILLER_6_56
*314 FILLER_6_68
*315 FILLER_6_82
*316 FILLER_7_19
*317 FILLER_7_31
*318 FILLER_7_43
*319 FILLER_7_50
*320 FILLER_7_57
*321 FILLER_7_7
*322 FILLER_7_75
*323 FILLER_7_79
*324 FILLER_7_83
*325 FILLER_7_98
*326 FILLER_8_23
*327 FILLER_8_27
*328 FILLER_8_43
*329 FILLER_8_55
*330 FILLER_8_64
*331 FILLER_8_76
*332 FILLER_8_85
*333 FILLER_9_20
*334 FILLER_9_53
*335 FILLER_9_72
*336 FILLER_9_80
*337 PHY_EDGE_ROW_0_Left_17
*338 PHY_EDGE_ROW_0_Right_0
*339 PHY_EDGE_ROW_10_Left_27
*340 PHY_EDGE_ROW_10_Right_10
*341 PHY_EDGE_ROW_11_Left_28
*342 PHY_EDGE_ROW_11_Right_11
*343 PHY_EDGE_ROW_12_Left_29
*344 PHY_EDGE_ROW_12_Right_12
*345 PHY_EDGE_ROW_13_Left_30
*346 PHY_EDGE_ROW_13_Right_13
*347 PHY_EDGE_ROW_14_Left_31
*348 PHY_EDGE_ROW_14_Right_14
*349 PHY_EDGE_ROW_15_Left_32
*350 PHY_EDGE_ROW_15_Right_15
*351 PHY_EDGE_ROW_16_Left_33
*352 PHY_EDGE_ROW_16_Right_16
*353 PHY_EDGE_ROW_1_Left_18
*354 PHY_EDGE_ROW_1_Right_1
*355 PHY_EDGE_ROW_2_Left_19
*356 PHY_EDGE_ROW_2_Right_2
*357 PHY_EDGE_ROW_3_Left_20
*358 PHY_EDGE_ROW_3_Right_3
*359 PHY_EDGE_ROW_4_Left_21
*360 PHY_EDGE_ROW_4_Right_4
*361 PHY_EDGE_ROW_5_Left_22
*362 PHY_EDGE_ROW_5_Right_5
*363 PHY_EDGE_ROW_6_Left_23
*364 PHY_EDGE_ROW_6_Right_6
*365 PHY_EDGE_ROW_7_Left_24
*366 PHY_EDGE_ROW_7_Right_7
*367 PHY_EDGE_ROW_8_Left_25
*368 PHY_EDGE_ROW_8_Right_8
*369 PHY_EDGE_ROW_9_Left_26
*370 PHY_EDGE_ROW_9_Right_9
*371 TAP_TAPCELL_ROW_0_34
*372 TAP_TAPCELL_ROW_0_35
*373 TAP_TAPCELL_ROW_0_36
*374 TAP_TAPCELL_ROW_10_50
*375 TAP_TAPCELL_ROW_10_51
*376 TAP_TAPCELL_ROW_11_52
*377 TAP_TAPCELL_ROW_12_53
*378 TAP_TAPCELL_ROW_12_54
*379 TAP_TAPCELL_ROW_13_55
*380 TAP_TAPCELL_ROW_14_56
*381 TAP_TAPCELL_ROW_14_57
*382 TAP_TAPCELL_ROW_15_58
*383 TAP_TAPCELL_ROW_16_59
*384 TAP_TAPCELL_ROW_16_60
*385 TAP_TAPCELL_ROW_16_61
*386 TAP_TAPCELL_ROW_1_37
*387 TAP_TAPCELL_ROW_2_38
*388 TAP_TAPCELL_ROW_2_39
*389 TAP_TAPCELL_ROW_3_40
*390 TAP_TAPCELL_ROW_4_41
*391 TAP_TAPCELL_ROW_4_42
*392 TAP_TAPCELL_ROW_5_43
*393 TAP_TAPCELL_ROW_6_44
*394 TAP_TAPCELL_ROW_6_45
*395 TAP_TAPCELL_ROW_7_46
*396 TAP_TAPCELL_ROW_8_47
*397 TAP_TAPCELL_ROW_8_48
*398 TAP_TAPCELL_ROW_9_49
*399 _121_
*400 _122_
*401 _123_
*402 _124_
*403 _125_
*404 _126_
*405 _127_
*406 _128_
*407 _129_
*408 _130_
*409 _131_
*410 _132_
*411 _133_
*412 _134_
*413 _135_
*414 _136_
*415 _137_
*416 _138_
*417 _139_
*418 _140_
*419 _141_
*420 _142_
*421 _143_
*422 _144_
*423 _145_
*424 _146_
*425 _147_
*426 _148_
*427 _149_
*428 _150_
*429 _151_
*430 _152_
*431 _153_
*432 _154_
*433 _155_
*434 _156_
*435 _157_
*436 _158_
*437 _159_
*438 _160_
*439 _161_
*440 _162_
*441 _163_
*442 _164_
*443 _165_
*444 _166_
*445 _167_
*446 _168_
*447 _169_
*448 _170_
*449 _171_
*450 _172_
*451 _173_
*452 _174_
*453 _175_
*454 _176_
*455 _177_
*456 _178_
*457 _179_
*458 _180_
*459 _181_
*460 _182_
*461 _183_
*462 _184_
*463 _185_
*464 _186_
*465 _187_
*466 _188_
*467 _189_
*468 _190_
*469 _191_
*470 _192_
*471 _193_
*472 _194_
*473 _195_
*474 _196_
*475 _197_
*476 _198_
*477 _199_
*478 _200_
*479 _201_
*480 _202_
*481 _203_
*482 _204_
*483 _205_
*484 _206_
*485 _207_
*486 _208_
*487 _209_
*488 _210_
*489 _211_
*490 _212_
*491 _213_
*492 _214_
*493 _215_
*494 _216_
*495 _217_
*496 _218_
*497 _219_
*498 _220_
*499 _221_
*500 _222_
*501 _223_
*502 _224_
*503 _225_
*504 _226_
*505 _227_
*506 _228_
*507 _229_
*508 _230_
*509 _231_
*510 _232_
*511 _233_
*512 _234_
*513 _235_
*514 _236_
*515 _237_
*516 _238_
*517 _239_
*518 _240_
*519 _241_
*520 _242_
*521 _243_
*522 _244_
*523 _245_
*524 _246_
*525 _247_
*526 _248_
*527 _249_
*528 _250_
*529 _251_
*530 fanout30
*531 fanout31
*532 fanout32
*533 input1
*534 input10
*535 input11
*536 input12
*537 input13
*538 input14
*539 input15
*540 input16
*541 input17
*542 input18
*543 input19
*544 input2
*545 input3
*546 input4
*547 input5
*548 input6
*549 input7
*550 input8
*551 input9
*552 output20
*553 output21
*554 output22
*555 output23
*556 output24
*557 output25
*558 output26
*559 output27
*560 output28
*561 output29

*PORTS
A[0] I
A[1] I
A[2] I
A[3] I
A[4] I
A[5] I
A[6] I
A[7] I
B[0] I
B[1] I
B[2] I
B[3] I
B[4] I
B[5] I
B[6] I
B[7] I
carry O
opcode[0] I
opcode[1] I
opcode[2] I
result[0] O
result[1] O
result[2] O
result[3] O
result[4] O
result[5] O
result[6] O
result[7] O
zero O

*D_NET *1 0.000776829
*CONN
*P A[0] I
*I *533:A I *D sky130_fd_sc_hd__dlymetal6s2s_1
*CAP
1 A[0] 0.000209726
2 *533:A 0.000209726
3 *533:A carry 8.26187e-05
4 *533:A *551:A 0.000235482
5 *533:A *92:16 0
6 *533:A *184:12 3.92757e-05
*RES
1 A[0] *533:A 19.9443 
*END

*D_NET *2 0.000625741
*CONN
*P A[1] I
*I *544:A I *D sky130_fd_sc_hd__clkbuf_2
*CAP
1 A[1] 0.000287189
2 *544:A 0.000287189
3 *544:A *534:A 2.87684e-05
4 *544:A *547:A 2.25951e-05
*RES
1 A[1] *544:A 20.891 
*END

*D_NET *3 0.00121266
*CONN
*P A[2] I
*I *545:A I *D sky130_fd_sc_hd__clkbuf_2
*CAP
1 A[2] 0.000556197
2 *545:A 0.000556197
3 *545:A result[3] 0
4 *545:A *435:A 0.000100262
*RES
1 A[2] *545:A 24.9786 
*END

*D_NET *4 0.00110749
*CONN
*P A[3] I
*I *546:A I *D sky130_fd_sc_hd__buf_2
*CAP
1 A[3] 0.000553747
2 *546:A 0.000553747
3 *546:A result[3] 0
4 *546:A *536:A 0
5 *546:A *556:A 0
*RES
1 A[3] *546:A 24.5679 
*END

*D_NET *5 0.000539511
*CONN
*P A[4] I
*I *547:A I *D sky130_fd_sc_hd__clkbuf_2
*CAP
1 A[4] 0.0002378
2 *547:A 0.0002378
3 *547:A *534:A 0
4 *547:A *537:A 2.25951e-05
5 *547:A *157:12 9.11806e-06
6 *547:A *180:10 9.60337e-06
7 *544:A *547:A 2.25951e-05
*RES
1 A[4] *547:A 18.4985 
*END

*D_NET *6 0.000870496
*CONN
*P A[5] I
*I *548:A I *D sky130_fd_sc_hd__clkbuf_2
*CAP
1 A[5] 0.000428227
2 *548:A 0.000428227
3 *548:A result[5] 0
4 *548:A *538:A 0
5 *548:A *158:18 1.40415e-05
*RES
1 A[5] *548:A 21.9429 
*END

*D_NET *7 0.000424548
*CONN
*P A[6] I
*I *549:A I *D sky130_fd_sc_hd__buf_1
*CAP
1 A[6] 0.000169407
2 *549:A 0.000169407
3 *549:A result[7] 8.57347e-05
4 *549:A *421:A2 0
5 *549:A *75:10 0
*RES
1 A[6] *549:A 18.1229 
*END

*D_NET *8 0.000832137
*CONN
*P A[7] I
*I *550:A I *D sky130_fd_sc_hd__clkbuf_1
*CAP
1 A[7] 0.000272068
2 *550:A 0.000272068
3 *550:A result[7] 9.28756e-05
4 *550:A *428:B2 3.54383e-05
5 *550:A *434:A2 5.10435e-05
6 *550:A *540:A 0.000108644
*RES
1 A[7] *550:A 19.3218 
*END

*D_NET *9 0.00110182
*CONN
*P B[0] I
*I *551:A I *D sky130_fd_sc_hd__clkbuf_1
*CAP
1 B[0] 0.000256019
2 *551:A 0.000256019
3 *551:A *540:A 0
4 *551:A *541:A 7.03253e-05
5 *551:A *92:16 0
6 *551:A *107:14 0.000283976
7 *533:A *551:A 0.000235482
*RES
1 B[0] *551:A 21.9258 
*END

*D_NET *10 0.000661041
*CONN
*P B[1] I
*I *534:A I *D sky130_fd_sc_hd__dlymetal6s2s_1
*CAP
1 B[1] 0.000272492
2 *534:A 0.000272492
3 *534:A result[0] 8.3155e-05
4 *534:A *470:A_N 4.1331e-06
5 *534:A *470:B 0
6 *544:A *534:A 2.87684e-05
7 *547:A *534:A 0
*RES
1 B[1] *534:A 19.9443 
*END

*D_NET *11 0.0011056
*CONN
*P B[2] I
*I *535:A I *D sky130_fd_sc_hd__buf_1
*CAP
1 B[2] 0.000552799
2 *535:A 0.000552799
*RES
1 B[2] *535:A 24.5679 
*END

*D_NET *12 0.00107065
*CONN
*P B[3] I
*I *536:A I *D sky130_fd_sc_hd__dlymetal6s2s_1
*CAP
1 B[3] 0.000535324
2 *536:A 0.000535324
3 *546:A *536:A 0
*RES
1 B[3] *536:A 24.2643 
*END

*D_NET *13 0.000615524
*CONN
*P B[4] I
*I *537:A I *D sky130_fd_sc_hd__buf_1
*CAP
1 B[4] 0.000296464
2 *537:A 0.000296464
3 *537:A *526:C 0
4 *547:A *537:A 2.25951e-05
*RES
1 B[4] *537:A 20.7838 
*END

*D_NET *14 0.00084331
*CONN
*P B[5] I
*I *538:A I *D sky130_fd_sc_hd__buf_1
*CAP
1 B[5] 0.000421655
2 *538:A 0.000421655
3 *548:A *538:A 0
*RES
1 B[5] *538:A 21.8357 
*END

*D_NET *15 0.00094414
*CONN
*P B[6] I
*I *539:A I *D sky130_fd_sc_hd__clkbuf_1
*CAP
1 B[6] 0.000462425
2 *539:A 0.000462425
3 *539:A *159:10 1.92905e-05
*RES
1 B[6] *539:A 22.6571 
*END

*D_NET *16 0.00158043
*CONN
*P B[7] I
*I *540:A I *D sky130_fd_sc_hd__clkbuf_1
*CAP
1 B[7] 0.000432273
2 *540:A 0.000432273
3 *540:A carry 8.34174e-05
4 *540:A *415:B 6.71116e-05
5 *540:A *434:A2 4.11218e-05
6 *540:A *434:A3 0.000175519
7 *540:A *552:A 0.000153047
8 *540:A *92:16 3.36205e-05
9 *540:A *107:14 0
10 *540:A *160:8 5.33978e-05
11 *550:A *540:A 0.000108644
12 *551:A *540:A 0
*RES
1 B[7] *540:A 23.8033 
*END

*D_NET *19 0.000529932
*CONN
*P carry O
*I *552:X O *D sky130_fd_sc_hd__buf_2
*CAP
1 carry 0.000167463
2 *552:X 0.000167463
3 carry *552:A 2.26973e-05
4 carry *107:14 6.27272e-06
5 *533:A carry 8.26187e-05
6 *540:A carry 8.34174e-05
*RES
1 *552:X carry 18.1949 
*END

*D_NET *20 0.00202386
*CONN
*P opcode[0] I
*I *541:A I *D sky130_fd_sc_hd__buf_1
*CAP
1 opcode[0] 0.000894927
2 *541:A 0.000894927
3 *541:A *542:A 0.000117226
4 *541:A *543:A 0
5 *541:A *90:8 4.64581e-05
6 *541:A *97:8 0
7 *551:A *541:A 7.03253e-05
*RES
1 opcode[0] *541:A 20.8658 
*END

*D_NET *21 0.00175523
*CONN
*P opcode[1] I
*I *542:A I *D sky130_fd_sc_hd__buf_1
*CAP
1 opcode[1] 0.00042516
2 *542:A 0.00042516
3 *542:A *456:B 3.69863e-05
4 *542:A *532:A 2.00751e-05
5 *542:A *543:A 0.000291823
6 *542:A *162:8 5.74533e-05
7 *542:A *163:10 5.41797e-06
8 *542:A *163:12 3.67356e-05
9 *542:A *176:8 0.000128161
10 *542:A *176:10 4.58764e-05
11 *542:A *177:10 0.000165157
12 *541:A *542:A 0.000117226
*RES
1 opcode[1] *542:A 23.4124 
*END

*D_NET *22 0.00126167
*CONN
*P opcode[2] I
*I *543:A I *D sky130_fd_sc_hd__buf_1
*CAP
1 opcode[2] 0.000428536
2 *543:A 0.000428536
3 *543:A *163:10 0.000112777
4 *541:A *543:A 0
5 *542:A *543:A 0.000291823
*RES
1 opcode[2] *543:A 20.4487 
*END

*D_NET *23 0.00141066
*CONN
*P result[0] O
*I *553:X O *D sky130_fd_sc_hd__buf_2
*CAP
1 result[0] 0.000534015
2 *553:X 0.000534015
3 result[0] result[1] 0.000128065
4 result[0] *118:14 6.57026e-05
5 result[0] *152:12 6.57026e-05
6 *534:A result[0] 8.3155e-05
*RES
1 *553:X result[0] 19.8831 
*END

*D_NET *24 0.000762169
*CONN
*P result[1] O
*I *554:X O *D sky130_fd_sc_hd__buf_2
*CAP
1 result[1] 0.000289846
2 *554:X 0.000289846
3 result[1] result[2] 5.44117e-05
4 result[1] *121:8 0
5 result[0] result[1] 0.000128065
*RES
1 *554:X result[1] 18.7868 
*END

*D_NET *25 0.00076198
*CONN
*P result[2] O
*I *555:X O *D sky130_fd_sc_hd__buf_2
*CAP
1 result[2] 0.000353784
2 *555:X 0.000353784
3 result[2] *555:A 0
4 result[1] result[2] 5.44117e-05
*RES
1 *555:X result[2] 20.8888 
*END

*D_NET *26 0.00118853
*CONN
*P result[3] O
*I *556:X O *D sky130_fd_sc_hd__buf_2
*CAP
1 result[3] 0.000594267
2 *556:X 0.000594267
3 *545:A result[3] 0
4 *546:A result[3] 0
*RES
1 *556:X result[3] 24.4786 
*END

*D_NET *27 0.000818291
*CONN
*P result[4] O
*I *557:X O *D sky130_fd_sc_hd__buf_2
*CAP
1 result[4] 0.000394695
2 *557:X 0.000394695
3 result[4] result[5] 0
4 result[4] result[6] 0
5 result[4] *557:A 2.89016e-05
*RES
1 *557:X result[4] 21.2286 
*END

*D_NET *28 0.000756636
*CONN
*P result[5] O
*I *558:X O *D sky130_fd_sc_hd__buf_2
*CAP
1 result[5] 0.000378318
2 *558:X 0.000378318
3 result[4] result[5] 0
4 *548:A result[5] 0
*RES
1 *558:X result[5] 21.3536 
*END

*D_NET *29 0.00110389
*CONN
*P result[6] O
*I *559:X O *D sky130_fd_sc_hd__buf_2
*CAP
1 result[6] 0.000536009
2 *559:X 0.000536009
3 result[6] zero 0
4 result[6] *557:A 3.18676e-05
5 result[4] result[6] 0
*RES
1 *559:X result[6] 22.8714 
*END

*D_NET *30 0.000753192
*CONN
*P result[7] O
*I *560:X O *D sky130_fd_sc_hd__buf_2
*CAP
1 result[7] 0.000177482
2 *560:X 0.000177482
3 result[7] *423:A 0.000102196
4 result[7] *434:A2 0.000117421
5 *549:A result[7] 8.57347e-05
6 *550:A result[7] 9.28756e-05
*RES
1 *560:X result[7] 19.4092 
*END

*D_NET *31 0.00102297
*CONN
*P zero O
*I *561:X O *D sky130_fd_sc_hd__buf_2
*CAP
1 zero 0.000508457
2 *561:X 0.000508457
3 zero *413:A 6.05161e-06
4 result[6] zero 0
*RES
1 *561:X zero 22.4607 
*END

*D_NET *32 0.00132394
*CONN
*I *507:A I *D sky130_fd_sc_hd__and2_1
*I *525:A I *D sky130_fd_sc_hd__nor2_1
*I *524:B1 I *D sky130_fd_sc_hd__o211a_1
*I *505:Y O *D sky130_fd_sc_hd__nand2_1
*CAP
1 *507:A 1.3376e-05
2 *525:A 0.000164651
3 *524:B1 0
4 *505:Y 0.000157121
5 *32:10 0.000285494
6 *32:6 0.00029134
7 *507:A *146:8 3.39084e-05
8 *525:A *524:A2 5.80706e-06
9 *525:A *524:C1 0.000110835
10 *525:A *145:24 0
11 *525:A *146:8 2.89016e-05
12 *32:6 *146:8 7.49387e-06
13 *32:6 *146:25 0.00018372
14 *32:10 *524:A1 1.97695e-05
15 *32:10 *146:8 2.15245e-05
*RES
1 *505:Y *32:6 11.4786 
2 *32:6 *32:10 2.08929 
3 *32:10 *524:B1 9.3 
4 *32:10 *525:A 21.6929 
5 *32:6 *507:A 10.0321 
*END

*D_NET *33 0.000513958
*CONN
*I *507:B I *D sky130_fd_sc_hd__and2_1
*I *506:X O *D sky130_fd_sc_hd__o21a_1
*CAP
1 *507:B 0.000152933
2 *506:X 0.000152933
3 *507:B *506:A1 9.91086e-05
4 *507:B *509:B1 9.90431e-05
5 *507:B *524:A2 0
6 *507:B *524:C1 5.80706e-06
7 *507:B *146:31 4.1331e-06
8 *507:B *152:23 0
*RES
1 *506:X *507:B 30.1893 
*END

*D_NET *34 0.00194866
*CONN
*I *512:A1 I *D sky130_fd_sc_hd__o31a_1
*I *507:X O *D sky130_fd_sc_hd__and2_1
*CAP
1 *512:A1 0.000548787
2 *507:X 0.000548787
3 *512:A1 *512:A2 5.65955e-05
4 *512:A1 *512:A3 2.96677e-05
5 *512:A1 *512:B1 5.49544e-05
6 *512:A1 *520:A2_N 0.000128146
7 *512:A1 *520:B1 0.000353079
8 *512:A1 *527:A 0.00018131
9 *512:A1 *90:39 4.73286e-05
*RES
1 *507:X *512:A1 38.2607 
*END

*D_NET *35 0.000279186
*CONN
*I *509:C1 I *D sky130_fd_sc_hd__a221o_1
*I *508:Y O *D sky130_fd_sc_hd__nor2_1
*CAP
1 *509:C1 5.12061e-05
2 *508:Y 5.12061e-05
3 *509:C1 *508:B 7.2972e-05
4 *509:C1 *509:A2 0
5 *509:C1 *509:B1 9.89019e-05
6 *509:C1 *509:B2 4.89956e-06
*RES
1 *508:Y *509:C1 19.975 
*END

*D_NET *36 0.00112793
*CONN
*I *512:A2 I *D sky130_fd_sc_hd__o31a_1
*I *509:X O *D sky130_fd_sc_hd__a221o_1
*CAP
1 *512:A2 0.000200248
2 *509:X 0.000200248
3 *512:A2 *512:A3 0.000241693
4 *512:A2 *523:B 0.0001752
5 *512:A2 *523:C 8.97203e-05
6 *512:A2 *527:A 6.6794e-05
7 *512:A2 *83:20 5.01474e-05
8 *512:A2 *90:39 2.14658e-05
9 *512:A2 *181:68 0
10 *512:A2 *181:94 2.58137e-05
11 *512:A1 *512:A2 5.65955e-05
*RES
1 *509:X *512:A2 34.7607 
*END

*D_NET *37 0.00128825
*CONN
*I *511:C1 I *D sky130_fd_sc_hd__a211o_1
*I *510:Y O *D sky130_fd_sc_hd__o22ai_1
*CAP
1 *511:C1 0.0002941
2 *510:Y 0.0002941
3 *511:C1 *489:A1_N 0.000134351
4 *511:C1 *510:B1 0.000135028
5 *511:C1 *521:B1 5.45912e-05
6 *511:C1 *105:34 0.000349547
7 *511:C1 *105:36 7.43578e-06
8 *511:C1 *180:66 1.90936e-05
*RES
1 *510:Y *511:C1 33.85 
*END

*D_NET *38 0.000650406
*CONN
*I *512:A3 I *D sky130_fd_sc_hd__o31a_1
*I *511:X O *D sky130_fd_sc_hd__a211o_1
*CAP
1 *512:A3 9.31145e-05
2 *511:X 9.31145e-05
3 *512:A3 *523:B 7.69776e-06
4 *512:A3 *90:39 0.000185118
5 *512:A3 *181:68 0
6 *512:A1 *512:A3 2.96677e-05
7 *512:A2 *512:A3 0.000241693
*RES
1 *511:X *512:A3 30.7071 
*END

*D_NET *39 0.00691622
*CONN
*I *516:A I *D sky130_fd_sc_hd__and2_1
*I *521:B1 I *D sky130_fd_sc_hd__o2bb2a_1
*I *411:B1 I *D sky130_fd_sc_hd__o211a_1
*I *517:A I *D sky130_fd_sc_hd__nand2_1
*I *513:Y O *D sky130_fd_sc_hd__nand2_1
*CAP
1 *516:A 1.16834e-05
2 *521:B1 0.000222307
3 *411:B1 0.000413689
4 *517:A 0
5 *513:Y 0.000132362
6 *39:35 0.00166761
7 *39:29 0.00143762
8 *39:12 0.000526682
9 *411:B1 *411:A2 5.95604e-05
10 *411:B1 *414:A1_N 0
11 *411:B1 *510:B1 0.000135841
12 *411:B1 *518:A1 1.39841e-05
13 *411:B1 *519:A3 0
14 *411:B1 *67:8 0.000183726
15 *411:B1 *83:20 2.68461e-05
16 *411:B1 *108:24 0
17 *411:B1 *170:10 0.000288564
18 *516:A *520:A2_N 5.80706e-06
19 *516:A *41:21 7.05143e-06
20 *521:B1 *489:A1_N 1.36251e-05
21 *521:B1 *510:B1 0.000419303
22 *521:B1 *105:34 0
23 *521:B1 *180:66 7.69776e-06
24 *39:12 *402:A 0.000125724
25 *39:12 *41:10 8.5896e-05
26 *39:12 *43:10 7.78065e-06
27 *39:29 *528:A1 2.38651e-06
28 *39:29 *528:C1 2.14658e-05
29 *39:29 *41:21 0.000603044
30 *39:29 *43:10 2.70294e-05
31 *39:29 *43:51 0.000316806
32 *39:35 *523:B 7.33722e-05
33 *39:35 *147:26 2.41653e-05
34 *39:35 *180:66 0
35 *511:C1 *521:B1 5.45912e-05
*RES
1 *513:Y *39:12 21.0143 
2 *39:12 *517:A 9.3 
3 *39:12 *39:29 14.0982 
4 *39:29 *39:35 8.45247 
5 *39:35 *411:B1 22.8268 
6 *39:35 *521:B1 19.2375 
7 *39:29 *516:A 14.0768 
*END

*D_NET *40 0.0030683
*CONN
*I *418:A1 I *D sky130_fd_sc_hd__o31ai_2
*I *412:A I *D sky130_fd_sc_hd__nor2_1
*I *514:Y O *D sky130_fd_sc_hd__nor2_1
*CAP
1 *418:A1 5.24594e-05
2 *412:A 0.000137006
3 *514:Y 0.000713428
4 *40:10 0.000902894
5 *412:A *405:B 0
6 *412:A *413:B 0.000148196
7 *412:A *414:A1_N 0
8 *412:A *418:A3 0
9 *412:A *431:D 0
10 *412:A *557:A 0
11 *412:A *170:10 0
12 *418:A1 *431:C 0.000128496
13 *418:A1 *56:16 3.99614e-06
14 *418:A1 *172:14 9.60939e-05
15 *40:10 *431:A 0.000210801
16 *40:10 *431:C 5.71472e-05
17 *40:10 *528:A1 0.000483761
18 *40:10 *559:A 2.54632e-05
19 *40:10 *171:14 2.28598e-05
20 *40:10 *172:14 8.57023e-05
*RES
1 *514:Y *40:10 20.1393 
2 *40:10 *412:A 20.8536 
3 *40:10 *418:A1 11.0857 
*END

*D_NET *41 0.00271876
*CONN
*I *520:A2_N I *D sky130_fd_sc_hd__o2bb2a_1
*I *516:B I *D sky130_fd_sc_hd__and2_1
*I *517:B I *D sky130_fd_sc_hd__nand2_1
*I *515:X O *D sky130_fd_sc_hd__or2_1
*CAP
1 *520:A2_N 0.000419638
2 *516:B 0
3 *517:B 0
4 *515:X 0.000135003
5 *41:21 0.000635127
6 *41:10 0.000350492
7 *520:A2_N *403:A2 0
8 *520:A2_N *520:B1 9.35794e-06
9 *520:A2_N *520:B2 8.83839e-05
10 *520:A2_N *528:B1 0
11 *520:A2_N *90:50 0
12 *520:A2_N *152:23 0
13 *520:A2_N *181:68 0
14 *41:10 *181:37 0
15 *41:21 *403:A2 0
16 *41:21 *528:C1 0.000250809
17 *41:21 *43:10 0
18 *512:A1 *520:A2_N 0.000128146
19 *516:A *520:A2_N 5.80706e-06
20 *516:A *41:21 7.05143e-06
21 *39:12 *41:10 8.5896e-05
22 *39:29 *41:21 0.000603044
*RES
1 *515:X *41:10 20.55 
2 *41:10 *517:B 9.3 
3 *41:10 *41:21 11.6607 
4 *41:21 *516:B 13.8 
5 *41:21 *520:A2_N 19.8536 
*END

*D_NET *42 0.00126049
*CONN
*I *525:B I *D sky130_fd_sc_hd__nor2_1
*I *524:C1 I *D sky130_fd_sc_hd__o211a_1
*I *516:X O *D sky130_fd_sc_hd__and2_1
*CAP
1 *525:B 0
2 *524:C1 0.000178101
3 *516:X 0.000202524
4 *42:10 0.000380625
5 *524:C1 *520:B1 1.08359e-05
6 *524:C1 *527:B 7.83587e-05
7 *524:C1 *43:19 3.34783e-05
8 *524:C1 *146:31 0
9 *42:10 *527:A 0.000130942
10 *42:10 *527:C 9.71197e-05
11 *42:10 *527:D 3.18676e-05
12 *507:B *524:C1 5.80706e-06
13 *525:A *524:C1 0.000110835
*RES
1 *516:X *42:10 13.675 
2 *42:10 *524:C1 21.6929 
3 *42:10 *525:B 9.3 
*END

*D_NET *43 0.00518829
*CONN
*I *518:B1 I *D sky130_fd_sc_hd__a21oi_1
*I *519:A3 I *D sky130_fd_sc_hd__a31o_1
*I *520:B1 I *D sky130_fd_sc_hd__o2bb2a_1
*I *526:B I *D sky130_fd_sc_hd__and3b_1
*I *403:A3 I *D sky130_fd_sc_hd__a311o_1
*I *517:Y O *D sky130_fd_sc_hd__nand2_1
*CAP
1 *518:B1 0.000223546
2 *519:A3 1.55183e-05
3 *520:B1 0.000242688
4 *526:B 0.000239017
5 *403:A3 0
6 *517:Y 0
7 *43:51 0.000676654
8 *43:19 0.000687443
9 *43:10 0.000518351
10 *43:4 0.000750203
11 *518:B1 *411:C1 5.49544e-05
12 *518:B1 *500:A 9.54798e-06
13 *518:B1 *500:B 0
14 *518:B1 *518:A1 0.000109475
15 *518:B1 *518:A2 4.38128e-05
16 *518:B1 *519:A2 5.5988e-05
17 *518:B1 *148:6 5.52302e-05
18 *518:B1 *148:14 9.76123e-05
19 *518:B1 *171:14 6.4059e-05
20 *519:A3 *528:A1 8.29398e-06
21 *520:B1 *520:B2 4.85049e-06
22 *520:B1 *527:B 6.81083e-05
23 *520:B1 *146:25 5.06983e-05
24 *520:B1 *146:31 3.5707e-05
25 *526:B *526:C 4.0342e-06
26 *526:B *527:C 0.000139907
27 *526:B *527:D 1.00073e-05
28 *526:B *52:6 1.00022e-05
29 *43:10 *402:A 5.83304e-05
30 *43:10 *403:A2 0
31 *43:10 *403:B1 0
32 *43:10 *403:C1 9.33978e-07
33 *43:10 *528:C1 0
34 *43:19 *403:A2 0
35 *43:19 *403:B1 0
36 *43:19 *527:B 1.02504e-05
37 *43:19 *146:31 7.32122e-05
38 *43:51 *528:A1 5.83695e-05
39 *43:51 *528:A2 1.59373e-05
40 *43:51 *528:B1 3.43019e-05
41 *43:51 *171:14 2.87555e-06
42 *411:B1 *519:A3 0
43 *512:A1 *520:B1 0.000353079
44 *520:A2_N *520:B1 9.35794e-06
45 *524:C1 *520:B1 1.08359e-05
46 *524:C1 *43:19 3.34783e-05
47 *39:12 *43:10 7.78065e-06
48 *39:29 *43:10 2.70294e-05
49 *39:29 *43:51 0.000316806
50 *41:21 *43:10 0
*RES
1 *517:Y *43:4 9.3 
2 *43:4 *43:10 9.32143 
3 *43:10 *403:A3 13.8 
4 *43:10 *43:19 3.16071 
5 *43:19 *526:B 17.7821 
6 *43:19 *520:B1 19.8 
7 *43:4 *43:51 6.30357 
8 *43:51 *519:A3 9.72857 
9 *43:51 *518:B1 23.4786 
*END

*D_NET *44 0.00171057
*CONN
*I *528:A1 I *D sky130_fd_sc_hd__o211ai_1
*I *518:Y O *D sky130_fd_sc_hd__a21oi_1
*CAP
1 *528:A1 0.000330253
2 *518:Y 0.000330253
3 *528:A1 *528:A2 2.84109e-05
4 *528:A1 *158:18 4.87014e-05
5 *528:A1 *158:20 2.84109e-05
6 *528:A1 *171:14 0.000315711
7 *528:A1 *181:18 1.58163e-05
8 *528:A1 *181:37 6.01991e-05
9 *519:A3 *528:A1 8.29398e-06
10 *39:29 *528:A1 2.38651e-06
11 *40:10 *528:A1 0.000483761
12 *43:51 *528:A1 5.83695e-05
*RES
1 *518:Y *528:A1 36.1714 
*END

*D_NET *45 0.000184742
*CONN
*I *528:A2 I *D sky130_fd_sc_hd__o211ai_1
*I *519:X O *D sky130_fd_sc_hd__a31o_1
*CAP
1 *528:A2 2.02041e-05
2 *519:X 2.02041e-05
3 *528:A2 *528:B1 9.99853e-05
4 *528:A1 *528:A2 2.84109e-05
5 *43:51 *528:A2 1.59373e-05
*RES
1 *519:X *528:A2 19.5464 
*END

*D_NET *46 0.000484422
*CONN
*I *523:A I *D sky130_fd_sc_hd__and3_1
*I *520:X O *D sky130_fd_sc_hd__o2bb2a_1
*CAP
1 *523:A 0.000188323
2 *520:X 0.000188323
3 *523:A *511:A2 1.11453e-05
4 *523:A *523:C 7.06966e-05
5 *523:A *90:39 2.59355e-05
*RES
1 *520:X *523:A 21.2071 
*END

*D_NET *47 0.00111427
*CONN
*I *523:B I *D sky130_fd_sc_hd__and3_1
*I *521:X O *D sky130_fd_sc_hd__o2bb2a_1
*CAP
1 *523:B 0.000294416
2 *521:X 0.000294416
3 *523:B *523:C 3.42426e-05
4 *523:B *83:20 0.000209569
5 *523:B *180:66 2.53592e-05
6 *512:A2 *523:B 0.0001752
7 *512:A3 *523:B 7.69776e-06
8 *39:35 *523:B 7.33722e-05
*RES
1 *521:X *523:B 38.6838 
*END

*D_NET *48 0.00212787
*CONN
*I *523:C I *D sky130_fd_sc_hd__and3_1
*I *522:X O *D sky130_fd_sc_hd__o2bb2a_1
*CAP
1 *523:C 0.000710795
2 *522:X 0.000710795
3 *523:C *509:A2 3.59064e-05
4 *523:C *90:50 0
5 *523:C *181:68 2.11419e-05
6 *523:C *181:94 0.000454569
7 *512:A2 *523:C 8.97203e-05
8 *523:A *523:C 7.06966e-05
9 *523:B *523:C 3.42426e-05
*RES
1 *522:X *523:C 39.5643 
*END

*D_NET *49 0.00170801
*CONN
*I *528:B1 I *D sky130_fd_sc_hd__o211ai_1
*I *523:X O *D sky130_fd_sc_hd__and3_1
*CAP
1 *528:B1 0.000444246
2 *523:X 0.000444246
3 *528:B1 *90:39 2.79421e-05
4 *528:B1 *171:14 0.000185118
5 *528:B1 *181:68 0.000472169
6 *520:A2_N *528:B1 0
7 *528:A2 *528:B1 9.99853e-05
8 *43:51 *528:B1 3.43019e-05
*RES
1 *523:X *528:B1 37.35 
*END

*D_NET *50 0.00114752
*CONN
*I *527:B I *D sky130_fd_sc_hd__or4_1
*I *524:X O *D sky130_fd_sc_hd__o211a_1
*CAP
1 *527:B 0.000295484
2 *524:X 0.000295484
3 *527:B *146:8 0.000399835
4 *520:B1 *527:B 6.81083e-05
5 *524:C1 *527:B 7.83587e-05
6 *43:19 *527:B 1.02504e-05
*RES
1 *524:X *527:B 32.4571 
*END

*D_NET *51 0.000314108
*CONN
*I *527:C I *D sky130_fd_sc_hd__or4_1
*I *525:Y O *D sky130_fd_sc_hd__nor2_1
*CAP
1 *527:C 2.98229e-05
2 *525:Y 2.98229e-05
3 *527:C *527:D 1.74352e-05
4 *526:B *527:C 0.000139907
5 *42:10 *527:C 9.71197e-05
*RES
1 *525:Y *527:C 19.9571 
*END

*D_NET *52 0.000587228
*CONN
*I *527:D I *D sky130_fd_sc_hd__or4_1
*I *403:B1 I *D sky130_fd_sc_hd__a311o_1
*I *526:X O *D sky130_fd_sc_hd__and3b_1
*CAP
1 *527:D 0.000112589
2 *403:B1 9.32292e-05
3 *526:X 4.60164e-05
4 *52:6 0.000251835
5 *403:B1 *403:C1 1.02504e-05
6 *403:B1 *145:24 0
7 *527:D *527:A 3.99614e-06
8 *526:B *527:D 1.00073e-05
9 *526:B *52:6 1.00022e-05
10 *527:C *527:D 1.74352e-05
11 *42:10 *527:D 3.18676e-05
12 *43:10 *403:B1 0
13 *43:19 *403:B1 0
*RES
1 *526:X *52:6 9.83571 
2 *52:6 *403:B1 19.9429 
3 *52:6 *527:D 11.0857 
*END

*D_NET *53 0.00114997
*CONN
*I *528:C1 I *D sky130_fd_sc_hd__o211ai_1
*I *527:X O *D sky130_fd_sc_hd__or4_1
*CAP
1 *528:C1 0.000328801
2 *527:X 0.000328801
3 *528:C1 *403:A2 0.00012401
4 *528:C1 *527:A 9.60875e-05
5 *39:29 *528:C1 2.14658e-05
6 *41:21 *528:C1 0.000250809
7 *43:10 *528:C1 0
*RES
1 *527:X *528:C1 34.3857 
*END

*D_NET *54 0.00110817
*CONN
*I *408:A2 I *D sky130_fd_sc_hd__a21o_1
*I *400:A I *D sky130_fd_sc_hd__nand2_2
*I *529:X O *D sky130_fd_sc_hd__or2_1
*CAP
1 *408:A2 0.000298612
2 *400:A 0
3 *529:X 0.000118377
4 *54:10 0.000416989
5 *408:A2 *408:B1 5.80706e-06
6 *408:A2 *431:C 0
7 *408:A2 *72:18 0
8 *408:A2 *90:18 2.28598e-05
9 *408:A2 *90:39 1.24368e-05
10 *408:A2 *182:30 0.000130197
11 *54:10 *431:C 0
12 *54:10 *182:30 0.000102892
*RES
1 *529:X *54:10 15.9786 
2 *54:10 *400:A 13.8 
3 *54:10 *408:A2 19.3179 
*END

*D_NET *55 0.00447067
*CONN
*I *406:B1 I *D sky130_fd_sc_hd__o22a_1
*I *400:B I *D sky130_fd_sc_hd__nand2_2
*I *418:B1 I *D sky130_fd_sc_hd__o31ai_2
*I *399:Y O *D sky130_fd_sc_hd__nand2_1
*CAP
1 *406:B1 0.000398934
2 *400:B 0.000123872
3 *418:B1 9.28009e-06
4 *399:Y 9.06445e-05
5 *55:19 0.000637867
6 *55:8 0.000214985
7 *400:B *405:B 2.89114e-05
8 *400:B *56:6 9.60939e-05
9 *400:B *61:12 0.000309273
10 *406:B1 *405:B 1.18451e-05
11 *406:B1 *407:B1 0.000100831
12 *406:B1 *409:A2 0.000119618
13 *406:B1 *409:B1 0.000522227
14 *406:B1 *410:A1 6.42242e-05
15 *406:B1 *414:B1 6.92434e-05
16 *406:B1 *424:A 5.52238e-05
17 *406:B1 *56:42 0.00018974
18 *406:B1 *93:27 6.16936e-05
19 *406:B1 *97:32 2.89016e-05
20 *406:B1 *106:79 0.000232663
21 *406:B1 *182:30 0.000100075
22 *418:B1 *431:C 2.44318e-05
23 *418:B1 *56:16 5.52238e-05
24 *55:8 *431:C 0.000495276
25 *55:8 *56:16 4.88637e-05
26 *55:8 *182:16 2.44318e-05
27 *55:8 *182:20 0.000144773
28 *55:8 *182:30 9.77274e-05
29 *55:19 *405:B 1.78447e-05
30 *55:19 *414:B1 5.80706e-06
31 *55:19 *418:A3 0
32 *55:19 *56:16 7.83462e-05
33 *55:19 *56:42 1.17968e-05
*RES
1 *399:Y *55:8 14.3714 
2 *55:8 *418:B1 9.83571 
3 *55:8 *55:19 7.05357 
4 *55:19 *400:B 17.2286 
5 *55:19 *406:B1 26.6036 
*END

*D_NET *56 0.00318732
*CONN
*I *405:A I *D sky130_fd_sc_hd__and2_1
*I *409:A2 I *D sky130_fd_sc_hd__o211a_1
*I *404:A I *D sky130_fd_sc_hd__nor2_1
*I *418:A2 I *D sky130_fd_sc_hd__o31ai_2
*I *413:A I *D sky130_fd_sc_hd__xor2_1
*I *400:Y O *D sky130_fd_sc_hd__nand2_2
*CAP
1 *405:A 0
2 *409:A2 0.00014112
3 *404:A 0
4 *418:A2 0
5 *413:A 0.000243179
6 *400:Y 4.85225e-05
7 *56:42 0.000255159
8 *56:16 0.000529353
9 *56:8 0.000400213
10 *56:6 4.85225e-05
11 *409:A2 *409:C1 7.72332e-05
12 *409:A2 *414:B2 0.000129868
13 *409:A2 *527:A 2.286e-05
14 *409:A2 *90:39 1.04232e-05
15 *413:A *413:B 0
16 *413:A *414:A2_N 0.000148189
17 *413:A *431:C 2.59355e-05
18 *413:A *559:A 0
19 *413:A *561:A 4.00121e-05
20 *413:A *172:14 2.8266e-06
21 *56:16 *431:C 9.74698e-05
22 *56:16 *182:30 0.00015134
23 *56:42 *414:B2 0.000150625
24 *56:42 *182:30 5.47391e-05
25 zero *413:A 6.05161e-06
26 *400:B *56:6 9.60939e-05
27 *406:B1 *409:A2 0.000119618
28 *406:B1 *56:42 0.00018974
29 *418:A1 *56:16 3.99614e-06
30 *418:B1 *56:16 5.52238e-05
31 *55:8 *56:16 4.88637e-05
32 *55:19 *56:16 7.83462e-05
33 *55:19 *56:42 1.17968e-05
*RES
1 *400:Y *56:6 10.2464 
2 *56:6 *56:8 4.5 
3 *56:8 *56:16 10.6964 
4 *56:16 *413:A 23.05 
5 *56:16 *418:A2 9.3 
6 *56:8 *56:42 3.51786 
7 *56:42 *404:A 13.8 
8 *56:42 *409:A2 17.6571 
9 *56:6 *405:A 9.3 
*END

*D_NET *57 0.00115034
*CONN
*I *402:A I *D sky130_fd_sc_hd__inv_2
*I *401:Y O *D sky130_fd_sc_hd__nand2b_1
*CAP
1 *402:A 0.000297497
2 *401:Y 0.000297497
3 *402:A *513:B 0.000314139
4 *402:A *158:29 5.71472e-05
5 *39:12 *402:A 0.000125724
6 *43:10 *402:A 5.83304e-05
*RES
1 *401:Y *402:A 32.6536 
*END

*D_NET *58 0.000660556
*CONN
*I *403:C1 I *D sky130_fd_sc_hd__a311o_1
*I *402:Y O *D sky130_fd_sc_hd__inv_2
*CAP
1 *403:C1 0.000324686
2 *402:Y 0.000324686
3 *403:C1 *145:24 0
4 *403:B1 *403:C1 1.02504e-05
5 *43:10 *403:C1 9.33978e-07
*RES
1 *402:Y *403:C1 31.725 
*END

*D_NET *59 0.00558668
*CONN
*I *404:B I *D sky130_fd_sc_hd__nor2_1
*I *405:B I *D sky130_fd_sc_hd__and2_1
*I *403:X O *D sky130_fd_sc_hd__a311o_1
*CAP
1 *404:B 6.19052e-05
2 *405:B 0.000271435
3 *403:X 0.00143111
4 *59:10 0.00176445
5 *404:B *410:A3 4.72917e-05
6 *405:B *410:A1 3.34295e-05
7 *405:B *410:B1 0
8 *405:B *414:A1_N 0
9 *405:B *414:B1 0.000148182
10 *405:B *414:B2 2.32625e-05
11 *405:B *418:A3 4.46186e-06
12 *405:B *61:12 1.55885e-05
13 *59:10 *410:A3 5.33334e-05
14 *59:10 *414:B1 1.74352e-05
15 *59:10 *519:B1 5.49544e-05
16 *59:10 *108:24 0.000858018
17 *59:10 *145:24 0.000737472
18 *59:10 *146:44 5.74499e-06
19 *400:B *405:B 2.89114e-05
20 *406:B1 *405:B 1.18451e-05
21 *412:A *405:B 0
22 *55:19 *405:B 1.78447e-05
*RES
1 *403:X *59:10 29.7821 
2 *59:10 *405:B 23.9607 
3 *59:10 *404:B 10.675 
*END

*D_NET *60 0.000276963
*CONN
*I *410:A2 I *D sky130_fd_sc_hd__o31ai_1
*I *404:Y O *D sky130_fd_sc_hd__nor2_1
*CAP
1 *410:A2 8.99612e-05
2 *404:Y 8.99612e-05
3 *410:A2 *410:A3 2.28598e-05
4 *410:A2 *414:B1 7.41811e-05
*RES
1 *404:Y *410:A2 19.7518 
*END

*D_NET *61 0.00414784
*CONN
*I *421:A1 I *D sky130_fd_sc_hd__o21ai_1
*I *410:A3 I *D sky130_fd_sc_hd__o31ai_1
*I *422:A I *D sky130_fd_sc_hd__or3_1
*I *405:X O *D sky130_fd_sc_hd__and2_1
*CAP
1 *421:A1 0
2 *410:A3 0.000419569
3 *422:A 7.47152e-05
4 *405:X 0.000579328
5 *61:33 0.000598966
6 *61:12 0.000833441
7 *410:A3 *414:B1 0.0001399
8 *422:A *421:A2 2.16719e-05
9 *422:A *422:B 9.71197e-05
10 *422:A *428:A2_N 9.25014e-06
11 *422:A *433:A2 2.84398e-05
12 *422:A *73:10 5.80706e-06
13 *422:A *182:12 5.23142e-05
14 *61:12 *414:B2 0.000136951
15 *61:12 *422:B 0.000139907
16 *61:12 *72:24 5.52302e-05
17 *61:33 *421:A2 0.000204116
18 *61:33 *428:A1_N 1.4763e-05
19 *61:33 *428:A2_N 0.000121573
20 *61:33 *428:B1 0
21 *61:33 *431:C 4.13595e-05
22 *61:33 *433:A2 5.41797e-05
23 *61:33 *560:A 7.08933e-05
24 *400:B *61:12 0.000309273
25 *404:B *410:A3 4.72917e-05
26 *405:B *61:12 1.55885e-05
27 *410:A2 *410:A3 2.28598e-05
28 *59:10 *410:A3 5.33334e-05
*RES
1 *405:X *61:12 22.6929 
2 *61:12 *422:A 15.8893 
3 *61:12 *61:33 9.69643 
4 *61:33 *410:A3 16.8357 
5 *61:33 *421:A1 9.3 
*END

*D_NET *62 0.00163713
*CONN
*I *409:B1 I *D sky130_fd_sc_hd__o211a_1
*I *406:X O *D sky130_fd_sc_hd__o22a_1
*CAP
1 *409:B1 0.000249614
2 *406:X 0.000249614
3 *409:B1 *93:27 0.000521512
4 *409:B1 *97:32 9.41642e-05
5 *406:B1 *409:B1 0.000522227
*RES
1 *406:X *409:B1 35.35 
*END

*D_NET *63 0.000679616
*CONN
*I *408:B1 I *D sky130_fd_sc_hd__a21o_1
*I *407:X O *D sky130_fd_sc_hd__a22o_1
*CAP
1 *408:B1 0.000213038
2 *407:X 0.000213038
3 *408:B1 *90:18 0
4 *408:B1 *107:39 9.46929e-05
5 *408:B1 *182:30 0.00015304
6 *408:A2 *408:B1 5.80706e-06
*RES
1 *407:X *408:B1 31.3143 
*END

*D_NET *64 0.001212
*CONN
*I *414:B2 I *D sky130_fd_sc_hd__o2bb2a_1
*I *408:X O *D sky130_fd_sc_hd__a21o_1
*CAP
1 *414:B2 0.000250524
2 *408:X 0.000250524
3 *414:B2 *182:30 0.000270243
4 *405:B *414:B2 2.32625e-05
5 *409:A2 *414:B2 0.000129868
6 *56:42 *414:B2 0.000150625
7 *61:12 *414:B2 0.000136951
*RES
1 *408:X *414:B2 33.2429 
*END

*D_NET *65 0.000403433
*CONN
*I *410:B1 I *D sky130_fd_sc_hd__o31ai_1
*I *409:X O *D sky130_fd_sc_hd__o211a_1
*CAP
1 *410:B1 0.000110378
2 *409:X 0.000110378
3 *410:B1 *410:A1 0
4 *410:B1 *414:A1_N 0.000127446
5 *410:B1 *527:A 5.52302e-05
6 *405:B *410:B1 0
*RES
1 *409:X *410:B1 29.7786 
*END

*D_NET *66 0.000715623
*CONN
*I *414:B1 I *D sky130_fd_sc_hd__o2bb2a_1
*I *410:Y O *D sky130_fd_sc_hd__o31ai_1
*CAP
1 *414:B1 0.000130437
2 *410:Y 0.000130437
3 *405:B *414:B1 0.000148182
4 *406:B1 *414:B1 6.92434e-05
5 *410:A2 *414:B1 7.41811e-05
6 *410:A3 *414:B1 0.0001399
7 *55:19 *414:B1 5.80706e-06
8 *59:10 *414:B1 1.74352e-05
*RES
1 *410:Y *414:B1 31.3143 
*END

*D_NET *67 0.00148261
*CONN
*I *412:B I *D sky130_fd_sc_hd__nor2_1
*I *418:A3 I *D sky130_fd_sc_hd__o31ai_2
*I *411:X O *D sky130_fd_sc_hd__o211a_1
*CAP
1 *412:B 0
2 *418:A3 0.000256852
3 *411:X 0.000266582
4 *67:8 0.000523434
5 *418:A3 *414:A1_N 2.90498e-05
6 *418:A3 *414:A2_N 6.42338e-05
7 *418:A3 *172:14 9.90431e-05
8 *67:8 *83:20 5.52302e-05
9 *405:B *418:A3 4.46186e-06
10 *411:B1 *67:8 0.000183726
11 *412:A *418:A3 0
12 *55:19 *418:A3 0
*RES
1 *411:X *67:8 14.3714 
2 *67:8 *418:A3 23.2643 
3 *67:8 *412:B 9.3 
*END

*D_NET *68 0.000668975
*CONN
*I *413:B I *D sky130_fd_sc_hd__xor2_1
*I *412:Y O *D sky130_fd_sc_hd__nor2_1
*CAP
1 *413:B 0.000197524
2 *412:Y 0.000197524
3 *413:B *559:A 0
4 *413:B *172:14 0.000125731
5 *412:A *413:B 0.000148196
6 *413:A *413:B 0
*RES
1 *412:Y *413:B 31.6714 
*END

*D_NET *69 0.000603009
*CONN
*I *414:A2_N I *D sky130_fd_sc_hd__o2bb2a_1
*I *413:X O *D sky130_fd_sc_hd__xor2_1
*CAP
1 *414:A2_N 0.000156114
2 *413:X 0.000156114
3 *414:A2_N *561:A 7.83587e-05
4 *414:A2_N *172:14 0
5 *413:A *414:A2_N 0.000148189
6 *418:A3 *414:A2_N 6.42338e-05
*RES
1 *413:X *414:A2_N 31.0643 
*END

*D_NET *70 0.00180403
*CONN
*I *433:A1 I *D sky130_fd_sc_hd__a21bo_1
*I *417:A I *D sky130_fd_sc_hd__nand2_1
*I *425:B1 I *D sky130_fd_sc_hd__a2bb2o_1
*I *415:X O *D sky130_fd_sc_hd__or2_1
*CAP
1 *433:A1 0
2 *417:A 0.000160812
3 *425:B1 6.55807e-05
4 *415:X 0.000192419
5 *70:12 0.000290248
6 *70:8 0.000256274
7 *417:A *72:14 3.84385e-05
8 *417:A *90:10 0
9 *417:A *107:22 4.23086e-05
10 *417:A *183:12 0.000275101
11 *425:B1 *423:A 0
12 *425:B1 *107:22 1.92789e-05
13 *70:8 *415:A 0.000105163
14 *70:8 *427:A 0
15 *70:8 *428:B2 9.60875e-05
16 *70:8 *433:A2 2.89016e-05
17 *70:12 *428:A1_N 4.46186e-06
18 *70:12 *107:22 7.83366e-05
19 *70:12 *183:10 3.34295e-05
20 *70:12 *183:12 0.000117189
*RES
1 *415:X *70:8 13.1393 
2 *70:8 *70:12 6.44643 
3 *70:12 *425:B1 14.7643 
4 *70:12 *417:A 17.8 
5 *70:8 *433:A1 9.3 
*END

*D_NET *71 0.00138481
*CONN
*I *417:B I *D sky130_fd_sc_hd__nand2_1
*I *424:B I *D sky130_fd_sc_hd__nor2_1
*I *433:B1_N I *D sky130_fd_sc_hd__a21bo_1
*I *416:Y O *D sky130_fd_sc_hd__nand2_1
*CAP
1 *417:B 3.39623e-05
2 *424:B 0.000142776
3 *433:B1_N 9.14385e-05
4 *416:Y 4.11098e-05
5 *71:19 0.000209316
6 *71:6 0.000165126
7 *417:B *416:B 4.22908e-05
8 *417:B *432:A_N 3.99614e-06
9 *417:B *72:14 6.05161e-06
10 *424:B *416:A 0
11 *424:B *416:B 7.43578e-06
12 *424:B *427:B 2.89016e-05
13 *424:B *183:29 2.42662e-05
14 *424:B *183:35 0.000125057
15 *433:B1_N *72:14 0.000148911
16 *433:B1_N *72:18 0.000128154
17 *433:B1_N *90:10 0.000101545
18 *433:B1_N *90:18 2.14474e-05
19 *433:B1_N *107:22 6.30292e-05
*RES
1 *416:Y *71:6 9.83571 
2 *71:6 *433:B1_N 21.7643 
3 *71:6 *71:19 0.732143 
4 *71:19 *424:B 12.7286 
5 *71:19 *417:B 10.2643 
*END

*D_NET *72 0.00286387
*CONN
*I *425:A2_N I *D sky130_fd_sc_hd__a2bb2o_1
*I *421:B1 I *D sky130_fd_sc_hd__o21ai_1
*I *422:B I *D sky130_fd_sc_hd__or3_1
*I *419:A I *D sky130_fd_sc_hd__xor2_1
*I *417:Y O *D sky130_fd_sc_hd__nand2_1
*CAP
1 *425:A2_N 0
2 *421:B1 0
3 *422:B 0.000101942
4 *419:A 3.82418e-05
5 *417:Y 0.000162385
6 *72:24 0.000228252
7 *72:18 0.000277304
8 *72:14 0.000351622
9 *422:B *182:12 2.90075e-05
10 *72:14 *416:B 1.15281e-05
11 *72:14 *425:B2 4.58194e-05
12 *72:14 *107:22 3.34366e-05
13 *72:18 *431:C 7.05447e-05
14 *72:18 *433:A2 0.000219459
15 *72:18 *90:18 0.000442792
16 *72:18 *107:22 1.5942e-05
17 *72:24 *431:C 0.000147474
18 *72:24 *433:A2 7.17932e-05
19 *72:24 *182:12 2.51343e-06
20 *408:A2 *72:18 0
21 *417:A *72:14 3.84385e-05
22 *417:B *72:14 6.05161e-06
23 *422:A *422:B 9.71197e-05
24 *433:B1_N *72:14 0.000148911
25 *433:B1_N *72:18 0.000128154
26 *61:12 *422:B 0.000139907
27 *61:12 *72:24 5.52302e-05
*RES
1 *417:Y *72:14 21.7286 
2 *72:14 *72:18 11.9107 
3 *72:18 *72:24 6.98214 
4 *72:24 *419:A 10.0321 
5 *72:24 *422:B 11.9071 
6 *72:18 *421:B1 13.8 
7 *72:14 *425:A2_N 9.3 
*END

*D_NET *73 0.00382607
*CONN
*I *433:A2 I *D sky130_fd_sc_hd__a21bo_1
*I *419:B I *D sky130_fd_sc_hd__xor2_1
*I *418:Y O *D sky130_fd_sc_hd__o31ai_2
*CAP
1 *433:A2 0.000349253
2 *419:B 0
3 *418:Y 0.000692259
4 *73:10 0.00104151
5 *433:A2 *428:A1_N 0.000367389
6 *433:A2 *428:A2_N 4.98055e-06
7 *433:A2 *428:B2 2.77289e-05
8 *433:A2 *431:C 5.90443e-06
9 *433:A2 *107:22 2.24646e-05
10 *433:A2 *107:37 5.33005e-05
11 *73:10 *421:A2 0
12 *73:10 *431:C 0.000724646
13 *73:10 *75:10 0
14 *73:10 *182:12 0.000101545
15 *73:10 *182:16 2.65105e-05
16 *422:A *433:A2 2.84398e-05
17 *422:A *73:10 5.80706e-06
18 *61:33 *433:A2 5.41797e-05
19 *70:8 *433:A2 2.89016e-05
20 *72:18 *433:A2 0.000219459
21 *72:24 *433:A2 7.17932e-05
*RES
1 *418:Y *73:10 24.7821 
2 *73:10 *419:B 13.8 
3 *73:10 *433:A2 22.9786 
*END

*D_NET *74 0.000713696
*CONN
*I *428:A2_N I *D sky130_fd_sc_hd__o2bb2a_1
*I *419:X O *D sky130_fd_sc_hd__xor2_1
*CAP
1 *428:A2_N 0.000162688
2 *419:X 0.000162688
3 *428:A2_N *421:A2 0.000100823
4 *428:A2_N *423:C 0
5 *428:A2_N *428:A1_N 2.61337e-05
6 *428:A2_N *428:B2 2.84398e-05
7 *428:A2_N *560:A 9.71197e-05
8 *422:A *428:A2_N 9.25014e-06
9 *433:A2 *428:A2_N 4.98055e-06
10 *61:33 *428:A2_N 0.000121573
*RES
1 *419:X *428:A2_N 31.1 
*END

*D_NET *75 0.00158129
*CONN
*I *421:A2 I *D sky130_fd_sc_hd__o21ai_1
*I *422:C I *D sky130_fd_sc_hd__or3_1
*I *420:X O *D sky130_fd_sc_hd__and2b_1
*CAP
1 *421:A2 0.000243541
2 *422:C 0
3 *420:X 0.000219477
4 *75:10 0.000463019
5 *421:A2 *423:C 0
6 *421:A2 *560:A 2.42516e-05
7 *421:A2 *76:6 0.000304394
8 *422:A *421:A2 2.16719e-05
9 *428:A2_N *421:A2 0.000100823
10 *549:A *421:A2 0
11 *549:A *75:10 0
12 *61:33 *421:A2 0.000204116
13 *73:10 *421:A2 0
14 *73:10 *75:10 0
*RES
1 *420:X *75:10 16.8 
2 *75:10 *422:C 13.8 
3 *75:10 *421:A2 19.4607 
*END

*D_NET *76 0.00273067
*CONN
*I *434:A2 I *D sky130_fd_sc_hd__a32o_1
*I *423:B I *D sky130_fd_sc_hd__and3_1
*I *421:Y O *D sky130_fd_sc_hd__o21ai_1
*CAP
1 *434:A2 0.000383409
2 *423:B 0
3 *421:Y 0.00039156
4 *76:6 0.000774969
5 *434:A2 *415:B 2.94387e-05
6 *434:A2 *423:A 0.0003356
7 *434:A2 *423:C 0.000108917
8 *434:A2 *428:B2 0
9 *434:A2 *560:A 4.06875e-05
10 *434:A2 *107:14 7.02611e-05
11 *434:A2 *183:10 0
12 *434:A2 *183:12 0
13 *76:6 *423:C 3.94968e-06
14 *76:6 *428:B1 5.71472e-05
15 *76:6 *560:A 2.07491e-05
16 result[7] *434:A2 0.000117421
17 *421:A2 *76:6 0.000304394
18 *540:A *434:A2 4.11218e-05
19 *550:A *434:A2 5.10435e-05
*RES
1 *421:Y *76:6 14.3536 
2 *76:6 *423:B 9.3 
3 *76:6 *434:A2 27.9071 
*END

*D_NET *77 0.000483927
*CONN
*I *423:C I *D sky130_fd_sc_hd__and3_1
*I *422:X O *D sky130_fd_sc_hd__or3_1
*CAP
1 *423:C 0.000179909
2 *422:X 0.000179909
3 *423:C *428:B2 0
4 *423:C *560:A 4.46186e-06
5 *423:C *182:12 6.78055e-06
6 *421:A2 *423:C 0
7 *428:A2_N *423:C 0
8 *434:A2 *423:C 0.000108917
9 *76:6 *423:C 3.94968e-06
*RES
1 *422:X *423:C 30.5821 
*END

*D_NET *78 0.000141983
*CONN
*I *428:B1 I *D sky130_fd_sc_hd__o2bb2a_1
*I *423:X O *D sky130_fd_sc_hd__and3_1
*CAP
1 *428:B1 3.10469e-05
2 *423:X 3.10469e-05
3 *428:B1 *560:A 2.27416e-05
4 *61:33 *428:B1 0
5 *76:6 *428:B1 5.71472e-05
*RES
1 *423:X *428:B1 19.5643 
*END

*D_NET *79 0.000749648
*CONN
*I *427:B I *D sky130_fd_sc_hd__or4_1
*I *424:Y O *D sky130_fd_sc_hd__nor2_1
*CAP
1 *427:B 0.000250756
2 *424:Y 0.000250756
3 *427:B *407:A1 0
4 *427:B *427:C 6.65398e-05
5 *427:B *427:D 5.33978e-05
6 *427:B *90:18 0
7 *427:B *97:14 4.57538e-05
8 *427:B *105:12 5.35423e-05
9 *427:B *182:30 0
10 *427:B *183:35 0
11 *424:B *427:B 2.89016e-05
*RES
1 *424:Y *427:B 33.1179 
*END

*D_NET *80 0.000230857
*CONN
*I *427:C I *D sky130_fd_sc_hd__or4_1
*I *425:X O *D sky130_fd_sc_hd__a2bb2o_1
*CAP
1 *427:C 4.726e-05
2 *425:X 4.726e-05
3 *427:C *90:18 6.97972e-05
4 *427:B *427:C 6.65398e-05
*RES
1 *425:X *427:C 29.2429 
*END

*D_NET *81 0.000364852
*CONN
*I *427:D I *D sky130_fd_sc_hd__or4_1
*I *426:X O *D sky130_fd_sc_hd__a2bb2o_1
*CAP
1 *427:D 0.000103519
2 *426:X 0.000103519
3 *427:D *407:A1 5.10822e-05
4 *427:D *107:39 5.33334e-05
5 *427:B *427:D 5.33978e-05
*RES
1 *426:X *427:D 29.8857 
*END

*D_NET *82 0.00122114
*CONN
*I *428:B2 I *D sky130_fd_sc_hd__o2bb2a_1
*I *427:X O *D sky130_fd_sc_hd__or4_1
*CAP
1 *428:B2 0.00040952
2 *427:X 0.00040952
3 *428:B2 *428:A1_N 0
4 *428:B2 *560:A 6.75007e-05
5 *428:B2 *107:37 7.02611e-05
6 *428:B2 *183:10 7.6644e-05
7 *423:C *428:B2 0
8 *428:A2_N *428:B2 2.84398e-05
9 *433:A2 *428:B2 2.77289e-05
10 *434:A2 *428:B2 0
11 *550:A *428:B2 3.54383e-05
12 *70:8 *428:B2 9.60875e-05
*RES
1 *427:X *428:B2 34.6714 
*END

*D_NET *83 0.0050864
*CONN
*I *430:B I *D sky130_fd_sc_hd__or2_1
*I *429:X O *D sky130_fd_sc_hd__or4_1
*CAP
1 *430:B 0
2 *429:X 0.00120943
3 *83:20 0.00120943
4 *83:20 *411:A2 5.922e-05
5 *83:20 *429:D 0.00043709
6 *83:20 *459:B1 0.000265385
7 *83:20 *460:A1 2.34204e-05
8 *83:20 *475:A2 0.000135389
9 *83:20 *477:B1 9.25014e-06
10 *83:20 *511:A2 7.83659e-05
11 *83:20 *512:B1 0
12 *83:20 *105:34 0.000139066
13 *83:20 *105:57 2.05938e-05
14 *83:20 *106:41 0.000576084
15 *83:20 *146:57 9.86586e-05
16 *83:20 *147:26 0.000159442
17 *83:20 *147:37 0.000194479
18 *83:20 *164:68 3.25078e-05
19 *83:20 *166:16 4.78056e-05
20 *83:20 *170:10 0
21 *83:20 *181:68 0
22 *83:20 *181:94 4.89833e-05
23 *411:B1 *83:20 2.68461e-05
24 *512:A2 *83:20 5.01474e-05
25 *523:B *83:20 0.000209569
26 *67:8 *83:20 5.52302e-05
*RES
1 *429:X *83:20 44.7286 
2 *83:20 *430:B 9.3 
*END

*D_NET *84 0.000640465
*CONN
*I *431:D I *D sky130_fd_sc_hd__nor4_1
*I *430:X O *D sky130_fd_sc_hd__or2_1
*CAP
1 *431:D 0.000171955
2 *430:X 0.000171955
3 *431:D *557:A 5.56943e-05
4 *431:D *559:A 0.00010096
5 *431:D *172:14 0.0001399
6 *412:A *431:D 0
*RES
1 *430:X *431:D 31.1179 
*END

*D_NET *85 0.000541861
*CONN
*I *434:A3 I *D sky130_fd_sc_hd__a32o_1
*I *432:Y O *D sky130_fd_sc_hd__nand2b_1
*CAP
1 *434:A3 9.35664e-05
2 *432:Y 9.35664e-05
3 *434:A3 *415:B 0.000175519
4 *434:A3 *160:21 3.69047e-06
5 *540:A *434:A3 0.000175519
*RES
1 *432:Y *434:A3 30.3857 
*END

*D_NET *86 0.000390075
*CONN
*I *434:B1 I *D sky130_fd_sc_hd__a32o_1
*I *433:X O *D sky130_fd_sc_hd__a21bo_1
*CAP
1 *434:B1 9.28456e-05
2 *433:X 9.28456e-05
3 *434:B1 *415:A 3.18676e-05
4 *434:B1 *415:B 4.66203e-05
5 *434:B1 *92:16 9.25014e-06
6 *434:B1 *107:14 1.1671e-05
7 *434:B1 *183:12 0.000104974
*RES
1 *433:X *434:B1 29.7161 
*END

*D_NET *87 0.000462456
*CONN
*I *491:A1 I *D sky130_fd_sc_hd__o211a_1
*I *435:Y O *D sky130_fd_sc_hd__inv_2
*CAP
1 *491:A1 0.000101035
2 *435:Y 0.000101035
3 *491:A1 *492:A_N 9.99853e-05
4 *491:A1 *155:12 5.85762e-05
5 *491:A1 *155:18 3.4846e-06
6 *491:A1 *175:67 9.83388e-05
*RES
1 *435:Y *491:A1 30.1893 
*END

*D_NET *88 0.000711613
*CONN
*I *524:A1 I *D sky130_fd_sc_hd__o211a_1
*I *436:Y O *D sky130_fd_sc_hd__inv_2
*CAP
1 *524:A1 0.000277371
2 *436:Y 0.000277371
3 *524:A1 *498:A 5.52238e-05
4 *524:A1 *146:8 8.18783e-05
5 *32:10 *524:A1 1.97695e-05
*RES
1 *436:Y *524:A1 23.2607 
*END

*D_NET *89 0.00143733
*CONN
*I *438:B I *D sky130_fd_sc_hd__nor2_2
*I *487:A2 I *D sky130_fd_sc_hd__o32a_1
*I *437:Y O *D sky130_fd_sc_hd__nand2_1
*CAP
1 *438:B 0.000334337
2 *487:A2 0.000237052
3 *437:Y 0
4 *89:4 0.000571389
5 *438:B *437:B 0
6 *438:B *163:12 0
7 *438:B *177:66 0.000167988
8 *438:B *177:76 0
9 *438:B *178:94 0
10 *487:A2 *437:A 1.40724e-05
11 *487:A2 *487:B2 5.62995e-05
12 *487:A2 *107:79 5.01393e-05
13 *487:A2 *177:66 6.05161e-06
*RES
1 *437:Y *89:4 9.3 
2 *89:4 *487:A2 12.7286 
3 *89:4 *438:B 23.2464 
*END

*D_NET *90 0.0122672
*CONN
*I *443:B1 I *D sky130_fd_sc_hd__o22a_1
*I *425:B2 I *D sky130_fd_sc_hd__a2bb2o_1
*I *477:A1 I *D sky130_fd_sc_hd__a211o_1
*I *458:B1 I *D sky130_fd_sc_hd__o21a_1
*I *509:B2 I *D sky130_fd_sc_hd__a221o_1
*I *520:A1_N I *D sky130_fd_sc_hd__o2bb2a_1
*I *408:A1 I *D sky130_fd_sc_hd__a21o_1
*I *438:Y O *D sky130_fd_sc_hd__nor2_2
*CAP
1 *443:B1 0
2 *425:B2 0.000122266
3 *477:A1 0.000426624
4 *458:B1 9.46355e-05
5 *509:B2 0.000186542
6 *520:A1_N 0
7 *408:A1 0
8 *438:Y 0.000332265
9 *90:65 0.000718846
10 *90:50 0.000576452
11 *90:39 0.00165656
12 *90:18 0.00199397
13 *90:10 0.000978017
14 *90:8 0.00065828
15 *458:B1 *453:A 5.49489e-05
16 *458:B1 *458:A2 5.20751e-05
17 *458:B1 *459:B1 0.000311128
18 *458:B1 *101:39 5.51021e-05
19 *477:A1 *429:C 0.000362268
20 *477:A1 *462:B1 0.000471509
21 *477:A1 *471:A2 0.000358394
22 *477:A1 *479:B1 2.59355e-05
23 *477:A1 *506:B1 0
24 *477:A1 *105:71 0
25 *509:B2 *508:B 0.000100811
26 *509:B2 *509:A2 0
27 *509:B2 *509:B1 1.69371e-05
28 *90:8 *443:B2 0.000194833
29 *90:8 *454:B 0
30 *90:8 *97:8 0
31 *90:8 *105:12 5.74562e-05
32 *90:8 *177:37 0
33 *90:8 *177:76 0
34 *90:8 *178:94 0
35 *90:10 *442:A2 0
36 *90:10 *443:B2 1.02504e-05
37 *90:10 *92:16 0
38 *90:10 *105:12 0.000292706
39 *90:10 *183:29 0
40 *90:18 *105:12 5.83304e-05
41 *90:39 *409:C1 0.000144184
42 *90:39 *527:A 4.14845e-05
43 *90:39 *105:34 0.000193318
44 *90:39 *108:24 0.000143566
45 *90:39 *181:68 0.000150618
46 *90:50 *508:B 1.52978e-05
47 *90:50 *180:66 2.11419e-05
48 *90:50 *181:68 0.000158306
49 *90:65 *471:A2 9.25014e-06
50 *90:65 *506:B1 0
51 *90:65 *508:B 0.000136584
52 *408:A2 *90:18 2.28598e-05
53 *408:A2 *90:39 1.24368e-05
54 *408:B1 *90:18 0
55 *409:A2 *90:39 1.04232e-05
56 *417:A *90:10 0
57 *427:B *90:18 0
58 *427:C *90:18 6.97972e-05
59 *433:B1_N *90:10 0.000101545
60 *433:B1_N *90:18 2.14474e-05
61 *509:C1 *509:B2 4.89956e-06
62 *512:A1 *90:39 4.73286e-05
63 *512:A2 *90:39 2.14658e-05
64 *512:A3 *90:39 0.000185118
65 *520:A2_N *90:50 0
66 *523:A *90:39 2.59355e-05
67 *523:C *90:50 0
68 *528:B1 *90:39 2.79421e-05
69 *541:A *90:8 4.64581e-05
70 *72:14 *425:B2 4.58194e-05
71 *72:18 *90:18 0.000442792
*RES
1 *438:Y *90:8 20.3 
2 *90:8 *90:10 7.10714 
3 *90:10 *90:18 14.6429 
4 *90:18 *408:A1 9.3 
5 *90:18 *90:39 30.0759 
6 *90:39 *520:A1_N 9.3 
7 *90:39 *90:50 7.66071 
8 *90:50 *509:B2 16.7464 
9 *90:50 *90:65 3.76786 
10 *90:65 *458:B1 17.2286 
11 *90:65 *477:A1 25.1393 
12 *90:10 *425:B2 15.5857 
13 *90:8 *443:B1 13.8 
*END

*D_NET *91 0.00622112
*CONN
*I *446:A1 I *D sky130_fd_sc_hd__o22ai_1
*I *463:A I *D sky130_fd_sc_hd__xor2_1
*I *468:A1 I *D sky130_fd_sc_hd__o21ai_1
*I *439:Y O *D sky130_fd_sc_hd__nand2_1
*CAP
1 *446:A1 0
2 *463:A 0.000163893
3 *468:A1 0
4 *439:Y 0.000183009
5 *91:28 0.000851814
6 *91:12 0.00087093
7 *463:A *449:A 5.80706e-06
8 *463:A *468:B1 1.00375e-05
9 *463:A *470:B 0
10 *463:A *471:A1 2.48938e-05
11 *463:A *101:16 0.000129868
12 *463:A *152:12 0
13 *463:A *154:23 0
14 *91:12 *461:B2 9.60939e-05
15 *91:12 *93:27 0.000153054
16 *91:12 *97:44 0.000184745
17 *91:12 *97:46 0.000181803
18 *91:12 *108:14 0.000153054
19 *91:12 *153:24 0.000303747
20 *91:28 *449:A 7.83366e-05
21 *91:28 *489:A1_N 0.000274294
22 *91:28 *490:C 0.000180955
23 *91:28 *510:A1 0.000308569
24 *91:28 *510:A2 0.00026651
25 *91:28 *520:B2 0.000544089
26 *91:28 *96:37 0
27 *91:28 *96:48 1.54142e-05
28 *91:28 *164:8 0
29 *91:28 *164:30 9.90431e-05
30 *91:28 *164:45 0.000693998
31 *91:28 *164:68 0.000363801
32 *91:28 *179:22 8.33567e-05
*RES
1 *439:Y *91:12 24.8893 
2 *91:12 *91:28 36.0357 
3 *91:28 *468:A1 13.8 
4 *91:28 *463:A 17.3179 
5 *91:12 *446:A1 9.3 
*END

*D_NET *92 0.0138575
*CONN
*I *462:A1 I *D sky130_fd_sc_hd__a311o_1
*I *506:B1 I *D sky130_fd_sc_hd__o21a_1
*I *478:A1 I *D sky130_fd_sc_hd__a31o_1
*I *434:A1 I *D sky130_fd_sc_hd__a32o_1
*I *423:A I *D sky130_fd_sc_hd__and3_1
*I *440:Y O *D sky130_fd_sc_hd__nor3b_2
*CAP
1 *462:A1 0.000113382
2 *506:B1 0.000440477
3 *478:A1 0.000360725
4 *434:A1 0
5 *423:A 0.000534984
6 *440:Y 2.16084e-05
7 *92:75 0.000763626
8 *92:54 0.00250427
9 *92:16 0.00102831
10 *92:8 0.00244872
11 *423:A *107:14 4.51611e-05
12 *462:A1 *462:A2 5.47047e-05
13 *462:A1 *464:A2 4.25652e-05
14 *462:A1 *464:A3 0
15 *478:A1 *464:B2 4.50033e-05
16 *478:A1 *478:A2 1.02504e-05
17 *478:A1 *478:A3 1.47919e-05
18 *478:A1 *479:A1 0.000162849
19 *478:A1 *554:A 0.000148105
20 *506:B1 *458:A1 4.94455e-05
21 *506:B1 *462:A3 0.00010326
22 *506:B1 *464:A1 0
23 *506:B1 *509:B1 0.000286826
24 *506:B1 *520:B2 0.000197984
25 *506:B1 *152:23 0
26 *506:B1 *180:54 0.000402784
27 *92:8 *161:10 8.07951e-05
28 *92:8 *177:10 3.51442e-05
29 *92:8 *177:12 4.66511e-05
30 *92:16 *415:B 0.000275094
31 *92:16 *442:A1 0.000150625
32 *92:16 *442:A2 5.31541e-05
33 *92:16 *442:B2 2.39779e-05
34 *92:16 *442:C1 5.41794e-05
35 *92:16 *107:14 0
36 *92:16 *160:8 9.40167e-05
37 *92:16 *161:10 0.00012316
38 *92:16 *176:14 4.97121e-06
39 *92:16 *177:12 9.82592e-05
40 *92:16 *183:12 0.000128941
41 *92:16 *183:29 2.61337e-05
42 *92:16 *184:12 3.92757e-05
43 *92:54 *444:B 0.000194819
44 *92:54 *475:A1 1.13883e-05
45 *92:54 *475:A2 0.000352375
46 *92:54 *487:B2 0.000391396
47 *92:54 *554:A 2.59355e-05
48 *92:54 *178:27 0.000207274
49 *92:54 *178:29 0.000330582
50 *92:54 *178:33 0.0005244
51 *92:75 *462:A3 5.83304e-05
52 *92:75 *462:B1 0
53 *92:75 *464:A1 0
54 *92:75 *464:B2 0
55 *92:75 *554:A 6.81083e-05
56 *92:75 *167:10 0.000197984
57 result[7] *423:A 0.000102196
58 *425:B1 *423:A 0
59 *434:A2 *423:A 0.0003356
60 *434:B1 *92:16 9.25014e-06
61 *477:A1 *506:B1 0
62 *533:A *92:16 0
63 *540:A *92:16 3.36205e-05
64 *551:A *92:16 0
65 *90:10 *92:16 0
66 *90:65 *506:B1 0
*RES
1 *440:Y *92:8 14.8357 
2 *92:8 *92:16 17.8393 
3 *92:16 *423:A 28.05 
4 *92:16 *434:A1 9.3 
5 *92:8 *92:54 33.8036 
6 *92:54 *478:A1 24.7107 
7 *92:54 *92:75 9.17857 
8 *92:75 *506:B1 24.7286 
9 *92:75 *462:A1 15.8893 
*END

*D_NET *93 0.0110187
*CONN
*I *527:A I *D sky130_fd_sc_hd__or4_1
*I *410:A1 I *D sky130_fd_sc_hd__o31ai_1
*I *493:B1 I *D sky130_fd_sc_hd__a31o_1
*I *441:X O *D sky130_fd_sc_hd__or3b_2
*CAP
1 *527:A 0.00110918
2 *410:A1 7.48214e-05
3 *493:B1 0.0013669
4 *441:X 0.000162483
5 *93:27 0.00169262
6 *93:6 0.002038
7 *493:B1 *487:B2 0
8 *493:B1 *488:B1 0
9 *493:B1 *491:C1 3.81416e-06
10 *493:B1 *495:C1 2.58821e-05
11 *493:B1 *499:A1 0.00013802
12 *493:B1 *499:B1 0.000353086
13 *493:B1 *504:C1 0
14 *493:B1 *96:12 0.000148911
15 *493:B1 *108:10 0
16 *493:B1 *108:14 0
17 *493:B1 *129:6 0.000128496
18 *493:B1 *179:16 0.00026027
19 *493:B1 *179:22 1.19309e-05
20 *493:B1 *179:57 1.39726e-05
21 *527:A *409:C1 1.02821e-05
22 *527:A *512:B1 2.78576e-05
23 *527:A *105:34 0.000833726
24 *527:A *170:10 0.000358126
25 *93:27 *414:A1_N 0
26 *93:27 *447:C 4.78056e-05
27 *93:27 *105:24 0.000331057
28 *93:27 *106:79 0.000140216
29 *93:27 *108:14 0.000308645
30 *405:B *410:A1 3.34295e-05
31 *406:B1 *410:A1 6.42242e-05
32 *406:B1 *93:27 6.16936e-05
33 *409:A2 *527:A 2.286e-05
34 *409:B1 *93:27 0.000521512
35 *410:B1 *410:A1 0
36 *410:B1 *527:A 5.52302e-05
37 *512:A1 *527:A 0.00018131
38 *512:A2 *527:A 6.6794e-05
39 *527:D *527:A 3.99614e-06
40 *528:C1 *527:A 9.60875e-05
41 *42:10 *527:A 0.000130942
42 *90:39 *527:A 4.14845e-05
43 *91:12 *93:27 0.000153054
*RES
1 *441:X *93:6 11.0679 
2 *93:6 *493:B1 39.8 
3 *93:6 *93:27 19.1964 
4 *93:27 *410:A1 15.4429 
5 *93:27 *527:A 35.3179 
*END

*D_NET *94 0.00109005
*CONN
*I *443:B2 I *D sky130_fd_sc_hd__o22a_1
*I *442:Y O *D sky130_fd_sc_hd__a221oi_1
*CAP
1 *443:B2 0.000187256
2 *442:Y 0.000187256
3 *443:B2 *441:B 5.52302e-05
4 *443:B2 *442:A2 0
5 *443:B2 *161:10 0.000266473
6 *443:B2 *176:18 4.58976e-05
7 *443:B2 *177:37 0.00014285
8 *90:8 *443:B2 0.000194833
9 *90:10 *443:B2 1.02504e-05
*RES
1 *442:Y *443:B2 32.7429 
*END

*D_NET *95 0.00197746
*CONN
*I *448:C1 I *D sky130_fd_sc_hd__a211o_1
*I *443:X O *D sky130_fd_sc_hd__o22a_1
*CAP
1 *448:C1 0.000335637
2 *443:X 0.000335637
3 *448:C1 *439:A 5.33005e-05
4 *448:C1 *448:A1 1.3701e-05
5 *448:C1 *451:B 6.74987e-05
6 *448:C1 *99:10 0.000456681
7 *448:C1 *102:14 5.71472e-05
8 *448:C1 *184:24 0.000657858
*RES
1 *443:X *448:C1 28.6 
*END

*D_NET *96 0.00946574
*CONN
*I *488:B2 I *D sky130_fd_sc_hd__o2bb2a_1
*I *459:B2 I *D sky130_fd_sc_hd__o22a_1
*I *446:A2 I *D sky130_fd_sc_hd__o22ai_1
*I *424:A I *D sky130_fd_sc_hd__nor2_1
*I *406:B2 I *D sky130_fd_sc_hd__o22a_1
*I *521:B2 I *D sky130_fd_sc_hd__o2bb2a_1
*I *510:A1 I *D sky130_fd_sc_hd__o22ai_1
*I *476:A1 I *D sky130_fd_sc_hd__o21ai_1
*I *444:X O *D sky130_fd_sc_hd__or3b_4
*CAP
1 *488:B2 3.11109e-05
2 *459:B2 6.52182e-05
3 *446:A2 0.000226689
4 *424:A 0.000194904
5 *406:B2 1.63023e-05
6 *521:B2 5.38213e-05
7 *510:A1 7.07352e-05
8 *476:A1 0.000127183
9 *444:X 0.00040497
10 *96:65 0.000587094
11 *96:48 0.000478014
12 *96:37 0.000290536
13 *96:31 0.00047552
14 *96:29 0.000362734
15 *96:18 0.000509584
16 *96:12 0.000598301
17 *424:A *97:32 0.000162286
18 *424:A *183:35 5.33005e-05
19 *446:A2 *461:B2 0.000166416
20 *459:B2 *459:A1 8.62591e-05
21 *459:B2 *164:68 2.12087e-05
22 *459:B2 *164:79 3.36817e-05
23 *459:B2 *166:16 0.000181381
24 *476:A1 *476:B1 0.000137983
25 *476:A1 *477:B1 0.000222666
26 *476:A1 *488:A1_N 0.00011097
27 *488:B2 *106:14 1.98839e-05
28 *510:A1 *510:B1 1.5424e-05
29 *510:A1 *520:B2 5.49489e-05
30 *510:A1 *105:34 0.000180764
31 *510:A1 *105:36 5.52302e-05
32 *521:B2 *489:A1_N 0.000125724
33 *521:B2 *510:B1 5.33882e-05
34 *96:12 *444:A 2.44318e-05
35 *96:12 *444:B 2.32517e-05
36 *96:12 *487:B2 0.000218203
37 *96:12 *178:33 2.51343e-06
38 *96:12 *179:16 7.83366e-05
39 *96:18 *488:A1_N 0.000227202
40 *96:18 *490:B 7.32272e-05
41 *96:18 *106:14 7.32272e-05
42 *96:18 *106:20 5.87491e-06
43 *96:29 *429:D 0.000332644
44 *96:29 *475:A2 9.20361e-05
45 *96:29 *490:C 0
46 *96:29 *106:20 0.000325823
47 *96:29 *106:26 0.000148196
48 *96:31 *475:A2 5.01117e-05
49 *96:31 *97:71 3.57844e-05
50 *96:31 *102:14 4.66203e-05
51 *96:31 *106:26 7.90803e-05
52 *96:37 *489:A1_N 9.25014e-06
53 *96:37 *490:C 0
54 *96:37 *97:71 0.00010326
55 *96:37 *102:14 2.47093e-05
56 *96:37 *106:41 7.15687e-05
57 *96:48 *489:A1_N 5.33005e-05
58 *96:48 *510:B1 9.60875e-05
59 *96:65 *489:A1_N 0.00033088
60 *96:65 *489:B2 8.84157e-05
61 *96:65 *510:B1 8.46829e-05
62 *96:65 *97:32 3.32631e-05
63 *96:65 *97:36 3.14048e-05
64 *406:B1 *424:A 5.52238e-05
65 *493:B1 *96:12 0.000148911
66 *91:28 *510:A1 0.000308569
67 *91:28 *96:37 0
68 *91:28 *96:48 1.54142e-05
*RES
1 *444:X *96:12 24.8893 
2 *96:12 *96:18 4.375 
3 *96:18 *476:A1 12.7107 
4 *96:18 *96:29 11.3036 
5 *96:29 *96:31 2.25 
6 *96:31 *96:37 8.19643 
7 *96:37 *510:A1 12.3 
8 *96:37 *96:48 1.375 
9 *96:48 *521:B2 19.9429 
10 *96:48 *96:65 7.96429 
11 *96:65 *406:B2 9.72857 
12 *96:65 *424:A 13.675 
13 *96:31 *446:A2 16.8 
14 *96:29 *459:B2 15.9964 
15 *96:12 *488:B2 9.83571 
*END

*D_NET *97 0.00954299
*CONN
*I *406:A2 I *D sky130_fd_sc_hd__o22a_1
*I *489:B1 I *D sky130_fd_sc_hd__o2bb2a_1
*I *446:B1 I *D sky130_fd_sc_hd__o22ai_1
*I *475:A2 I *D sky130_fd_sc_hd__o22a_1
*I *459:A2 I *D sky130_fd_sc_hd__o22a_1
*I *508:B I *D sky130_fd_sc_hd__nor2_1
*I *426:A2_N I *D sky130_fd_sc_hd__a2bb2o_1
*I *522:B1 I *D sky130_fd_sc_hd__o2bb2a_1
*I *445:Y O *D sky130_fd_sc_hd__nand3b_4
*CAP
1 *406:A2 0
2 *489:B1 0
3 *446:B1 0
4 *475:A2 0.000284515
5 *459:A2 0
6 *508:B 0.000550542
7 *426:A2_N 2.03441e-05
8 *522:B1 0.00023025
9 *445:Y 0.000534502
10 *97:71 0.000344319
11 *97:46 0.000875435
12 *97:44 0.000455171
13 *97:36 0.000274807
14 *97:32 0.000322916
15 *97:14 0.00036144
16 *97:8 0.00088354
17 *426:A2_N *105:24 5.7661e-06
18 *475:A2 *429:D 0.000122941
19 *475:A2 *475:A1 1.59373e-05
20 *475:A2 *477:B1 9.97552e-05
21 *475:A2 *487:B2 0.000113073
22 *475:A2 *105:71 9.58126e-05
23 *475:A2 *106:41 2.31791e-05
24 *508:B *459:B1 0.000222925
25 *508:B *471:A2 9.25014e-06
26 *508:B *102:14 0.000346047
27 *508:B *180:54 3.47793e-05
28 *522:B1 *522:A1_N 2.44318e-05
29 *522:B1 *105:24 3.30352e-05
30 *522:B1 *182:30 5.52238e-05
31 *522:B1 *182:32 0.000303368
32 *97:8 *447:A 0.000125724
33 *97:8 *447:B 0.000109602
34 *97:8 *105:12 0
35 *97:8 *106:79 0
36 *97:8 *183:35 6.98302e-05
37 *97:14 *105:12 0
38 *97:14 *105:24 3.76006e-05
39 *97:14 *183:35 0.00015134
40 *97:44 *406:A1 3.51442e-05
41 *97:44 *99:53 0
42 *97:44 *99:66 0
43 *97:44 *108:14 7.25296e-05
44 *97:46 *461:B2 8.41617e-05
45 *97:46 *102:14 0.00018372
46 *97:71 *106:41 0.00017309
47 *406:B1 *97:32 2.89016e-05
48 *409:B1 *97:32 9.41642e-05
49 *424:A *97:32 0.000162286
50 *427:B *97:14 4.57538e-05
51 *509:B2 *508:B 0.000100811
52 *509:C1 *508:B 7.2972e-05
53 *541:A *97:8 0
54 *83:20 *475:A2 0.000135389
55 *90:8 *97:8 0
56 *90:50 *508:B 1.52978e-05
57 *90:65 *508:B 0.000136584
58 *91:12 *97:44 0.000184745
59 *91:12 *97:46 0.000181803
60 *92:54 *475:A2 0.000352375
61 *96:29 *475:A2 9.20361e-05
62 *96:31 *475:A2 5.01117e-05
63 *96:31 *97:71 3.57844e-05
64 *96:37 *97:71 0.00010326
65 *96:65 *97:32 3.32631e-05
66 *96:65 *97:36 3.14048e-05
*RES
1 *445:Y *97:8 23.9429 
2 *97:8 *97:14 7.39286 
3 *97:14 *522:B1 13.9429 
4 *97:14 *426:A2_N 9.72857 
5 *97:8 *97:32 9.14286 
6 *97:32 *97:36 1.375 
7 *97:36 *97:44 13.0179 
8 *97:44 *97:46 5.05357 
9 *97:46 *508:B 29.3536 
10 *97:46 *97:71 6.75 
11 *97:71 *459:A2 13.8 
12 *97:71 *475:A2 22.4964 
13 *97:44 *446:B1 9.3 
14 *97:36 *489:B1 9.3 
15 *97:32 *406:A2 9.3 
*END

*D_NET *98 0.000445311
*CONN
*I *448:B1 I *D sky130_fd_sc_hd__a211o_1
*I *446:Y O *D sky130_fd_sc_hd__o22ai_1
*CAP
1 *448:B1 0.000128785
2 *446:Y 0.000128785
3 *448:B1 *461:B2 7.43578e-06
4 *448:B1 *99:53 7.6644e-05
5 *448:B1 *153:24 3.18676e-05
6 *448:B1 *179:22 7.17932e-05
*RES
1 *446:Y *448:B1 30.0821 
*END

*D_NET *99 0.00744789
*CONN
*I *407:A2 I *D sky130_fd_sc_hd__a22o_1
*I *509:A2 I *D sky130_fd_sc_hd__a221o_1
*I *522:A2_N I *D sky130_fd_sc_hd__o2bb2a_1
*I *489:A2_N I *D sky130_fd_sc_hd__o2bb2a_1
*I *474:A2 I *D sky130_fd_sc_hd__a22o_1
*I *460:A2 I *D sky130_fd_sc_hd__a21bo_1
*I *448:A2 I *D sky130_fd_sc_hd__a211o_1
*I *447:X O *D sky130_fd_sc_hd__and3_2
*CAP
1 *407:A2 0.00022387
2 *509:A2 0.000445335
3 *522:A2_N 0
4 *489:A2_N 3.61279e-05
5 *474:A2 1.99857e-05
6 *460:A2 0.000113983
7 *448:A2 4.6196e-05
8 *447:X 0.000296042
9 *99:72 0.000496752
10 *99:66 0.000500839
11 *99:53 0.000424964
12 *99:35 0.000358241
13 *99:16 0.000498279
14 *99:10 0.000687138
15 *407:A2 *407:A1 5.33005e-05
16 *407:A2 *407:B1 3.03071e-05
17 *407:A2 *407:B2 8.59278e-05
18 *407:A2 *511:A1 4.34988e-05
19 *407:A2 *511:B1 5.33334e-05
20 *407:A2 *107:39 0.000175423
21 *448:A2 *448:A1 9.60939e-05
22 *448:A2 *166:16 6.05161e-06
23 *460:A2 *429:D 0.000351363
24 *460:A2 *460:A1 5.33005e-05
25 *460:A2 *460:B1_N 2.95726e-05
26 *460:A2 *166:16 4.38168e-05
27 *489:A2_N *179:22 2.21972e-05
28 *509:A2 *521:A1_N 0.00013829
29 *509:A2 *522:A1_N 1.87592e-05
30 *509:A2 *181:94 0.000323706
31 *99:10 *102:14 5.52302e-05
32 *99:16 *474:B2 3.34366e-05
33 *99:16 *490:C 7.6644e-05
34 *99:16 *102:14 0.000281134
35 *99:16 *106:26 4.038e-06
36 *99:35 *429:D 1.33343e-05
37 *99:35 *474:A1 5.98758e-05
38 *99:35 *474:B2 0.000164554
39 *99:35 *490:C 0.00022117
40 *99:35 *106:20 1.78353e-05
41 *99:53 *153:24 0
42 *99:53 *179:22 7.1002e-05
43 *99:66 *406:A1 0
44 *99:66 *407:B2 2.63433e-05
45 *99:66 *511:A1 9.74684e-05
46 *99:66 *179:22 6.16936e-05
47 *99:72 *511:A1 2.22043e-05
48 *448:B1 *99:53 7.6644e-05
49 *448:C1 *99:10 0.000456681
50 *509:B2 *509:A2 0
51 *509:C1 *509:A2 0
52 *523:C *509:A2 3.59064e-05
53 *97:44 *99:53 0
54 *97:44 *99:66 0
*RES
1 *447:X *99:10 14.9071 
2 *99:10 *99:16 8.125 
3 *99:16 *448:A2 14.7464 
4 *99:16 *99:35 10.0893 
5 *99:35 *460:A2 12.7107 
6 *99:35 *474:A2 9.72857 
7 *99:10 *99:53 7.8125 
8 *99:53 *489:A2_N 14.6125 
9 *99:53 *99:66 4.375 
10 *99:66 *99:72 5.3125 
11 *99:72 *522:A2_N 9.3 
12 *99:72 *509:A2 17.367 
13 *99:66 *407:A2 18.9518 
*END

*D_NET *100 0.00365833
*CONN
*I *459:B1 I *D sky130_fd_sc_hd__o22a_1
*I *468:B1 I *D sky130_fd_sc_hd__o21ai_1
*I *449:Y O *D sky130_fd_sc_hd__nand2_1
*CAP
1 *459:B1 0.00089451
2 *468:B1 0.000100227
3 *449:Y 0
4 *100:4 0.000994737
5 *459:B1 *453:A 1.5424e-05
6 *459:B1 *458:A2 0.000149764
7 *459:B1 *102:14 1.5872e-05
8 *459:B1 *102:18 0.000140499
9 *459:B1 *105:57 1.08359e-05
10 *459:B1 *154:40 5.71472e-05
11 *459:B1 *164:68 0.000241198
12 *468:B1 *449:A 5.41794e-05
13 *468:B1 *152:12 7.83659e-05
14 *468:B1 *154:40 9.60939e-05
15 *458:B1 *459:B1 0.000311128
16 *463:A *468:B1 1.00375e-05
17 *508:B *459:B1 0.000222925
18 *83:20 *459:B1 0.000265385
*RES
1 *449:Y *100:4 9.3 
2 *100:4 *468:B1 20.2821 
3 *100:4 *459:B1 32.9786 
*END

*D_NET *101 0.00313018
*CONN
*I *461:A1_N I *D sky130_fd_sc_hd__a2bb2o_1
*I *452:A I *D sky130_fd_sc_hd__nand2_1
*I *453:A I *D sky130_fd_sc_hd__or2_1
*I *468:A2 I *D sky130_fd_sc_hd__o21ai_1
*I *471:A1 I *D sky130_fd_sc_hd__a21o_1
*I *463:B I *D sky130_fd_sc_hd__xor2_1
*I *450:Y O *D sky130_fd_sc_hd__xnor2_2
*CAP
1 *461:A1_N 9.28802e-05
2 *452:A 1.0818e-05
3 *453:A 2.13647e-05
4 *468:A2 0
5 *471:A1 7.87979e-05
6 *463:B 0
7 *450:Y 6.54453e-05
8 *101:41 6.86502e-05
9 *101:39 0.000517795
10 *101:16 0.000152667
11 *101:10 9.299e-05
12 *101:8 0.000473014
13 *452:A *102:18 4.08637e-05
14 *453:A *102:18 1.24368e-05
15 *461:A1_N *462:A2 7.6997e-05
16 *461:A1_N *471:A2 0.000150625
17 *471:A1 *470:B 0
18 *471:A1 *118:14 7.85652e-05
19 *101:8 *458:A2 0
20 *101:8 *154:40 2.55587e-05
21 *101:16 *118:14 6.74911e-05
22 *101:39 *449:A 4.58194e-05
23 *101:39 *458:A2 0.000491634
24 *101:39 *462:A3 0.000143375
25 *101:39 *464:A1 0.00010096
26 *101:39 *154:40 3.71931e-05
27 *101:41 *102:18 3.99614e-06
28 *458:B1 *453:A 5.49489e-05
29 *458:B1 *101:39 5.51021e-05
30 *459:B1 *453:A 1.5424e-05
31 *463:A *471:A1 2.48938e-05
32 *463:A *101:16 0.000129868
*RES
1 *450:Y *101:8 10.675 
2 *101:8 *101:10 0.428571 
3 *101:10 *101:16 6.67857 
4 *101:16 *463:B 13.8 
5 *101:16 *471:A1 15.7464 
6 *101:10 *468:A2 9.3 
7 *101:8 *101:39 9.16071 
8 *101:39 *101:41 0.732143 
9 *101:41 *453:A 10.2464 
10 *101:41 *452:A 9.83571 
11 *101:39 *461:A1_N 20.7821 
*END

*D_NET *102 0.00574451
*CONN
*I *452:B I *D sky130_fd_sc_hd__nand2_1
*I *453:B I *D sky130_fd_sc_hd__or2_1
*I *471:A2 I *D sky130_fd_sc_hd__a21o_1
*I *451:Y O *D sky130_fd_sc_hd__nand2b_1
*CAP
1 *452:B 0
2 *453:B 0
3 *471:A2 0.000796236
4 *451:Y 0.000371212
5 *102:18 0.000863056
6 *102:14 0.000438032
7 *471:A2 *429:B 2.94709e-06
8 *471:A2 *429:D 1.13883e-05
9 *471:A2 *461:B2 0
10 *471:A2 *462:C1 0.000103253
11 *471:A2 *471:B1 3.99614e-06
12 *471:A2 *553:A 0.000573538
13 *471:A2 *105:57 0
14 *471:A2 *105:71 0
15 *471:A2 *166:16 9.58126e-05
16 *102:14 *448:A1 0.000167436
17 *102:14 *461:B2 0.000472017
18 *102:14 *490:C 4.53124e-05
19 *102:14 *106:26 9.25014e-06
20 *102:14 *164:79 5.52302e-05
21 *448:C1 *102:14 5.71472e-05
22 *452:A *102:18 4.08637e-05
23 *453:A *102:18 1.24368e-05
24 *459:B1 *102:14 1.5872e-05
25 *459:B1 *102:18 0.000140499
26 *461:A1_N *471:A2 0.000150625
27 *477:A1 *471:A2 0.000358394
28 *508:B *471:A2 9.25014e-06
29 *508:B *102:14 0.000346047
30 *90:65 *471:A2 9.25014e-06
31 *96:31 *102:14 4.66203e-05
32 *96:37 *102:14 2.47093e-05
33 *97:46 *102:14 0.00018372
34 *99:10 *102:14 5.52302e-05
35 *99:16 *102:14 0.000281134
36 *101:41 *102:18 3.99614e-06
*RES
1 *451:Y *102:14 29.8357 
2 *102:14 *102:18 1.78571 
3 *102:18 *471:A2 33.1214 
4 *102:18 *453:B 9.3 
5 *102:14 *452:B 9.3 
*END

*D_NET *103 0.00106593
*CONN
*I *462:A2 I *D sky130_fd_sc_hd__a311o_1
*I *452:Y O *D sky130_fd_sc_hd__nand2_1
*CAP
1 *462:A2 0.000377307
2 *452:Y 0.000377307
3 *462:A2 *461:A2_N 3.69047e-06
4 *462:A2 *461:B2 2.16315e-05
5 *462:A2 *462:A3 8.07546e-05
6 *462:A2 *462:B1 3.4846e-06
7 *462:A2 *462:C1 4.23148e-05
8 *462:A2 *464:A2 2.77413e-05
9 *461:A1_N *462:A2 7.6997e-05
10 *462:A1 *462:A2 5.47047e-05
*RES
1 *452:Y *462:A2 42.0821 
*END

*D_NET *104 0.000701643
*CONN
*I *462:A3 I *D sky130_fd_sc_hd__a311o_1
*I *453:X O *D sky130_fd_sc_hd__or2_1
*CAP
1 *462:A3 0.000157961
2 *453:X 0.000157961
3 *462:A2 *462:A3 8.07546e-05
4 *506:B1 *462:A3 0.00010326
5 *92:75 *462:A3 5.83304e-05
6 *101:39 *462:A3 0.000143375
*RES
1 *453:X *462:A3 30.9036 
*END

*D_NET *105 0.0148073
*CONN
*I *425:A1_N I *D sky130_fd_sc_hd__a2bb2o_1
*I *409:A1 I *D sky130_fd_sc_hd__o211a_1
*I *510:B2 I *D sky130_fd_sc_hd__o22ai_1
*I *461:A2_N I *D sky130_fd_sc_hd__a2bb2o_1
*I *487:B2 I *D sky130_fd_sc_hd__o32a_1
*I *475:B1 I *D sky130_fd_sc_hd__o22a_1
*I *520:B2 I *D sky130_fd_sc_hd__o2bb2a_1
*I *454:X O *D sky130_fd_sc_hd__or3b_2
*CAP
1 *425:A1_N 3.62326e-05
2 *409:A1 0
3 *510:B2 0
4 *461:A2_N 0.000133062
5 *487:B2 0.000616986
6 *475:B1 0
7 *520:B2 0.000396547
8 *454:X 0.000574015
9 *105:71 0.000991094
10 *105:57 0.000756713
11 *105:36 0.000661954
12 *105:34 0.000513239
13 *105:24 0.00116827
14 *105:12 0.00128114
15 *461:A2_N *461:B1 5.49489e-05
16 *487:B2 *444:A 0.000183521
17 *487:B2 *444:B 1.63453e-05
18 *487:B2 *475:A1 5.52302e-05
19 *487:B2 *487:A1 0.000192585
20 *487:B2 *488:B1 6.58289e-05
21 *487:B2 *107:79 9.7659e-05
22 *487:B2 *108:10 9.91086e-05
23 *520:B2 *510:A2 0.000326463
24 *520:B2 *152:23 0
25 *105:12 *176:18 0.000268403
26 *105:24 *108:14 0.00031275
27 *105:24 *182:30 2.14658e-05
28 *105:24 *182:32 0.000108447
29 *105:34 *409:C1 4.18895e-05
30 *105:34 *489:A1_N 2.16719e-05
31 *105:34 *510:B1 9.41642e-05
32 *105:34 *511:A2 7.83659e-05
33 *105:34 *106:41 0.000235012
34 *105:34 *108:24 0.000271352
35 *105:57 *461:B2 8.85068e-05
36 *105:57 *164:68 0.000308592
37 *105:71 *460:A1 0.000177853
38 *105:71 *460:B1_N 7.85137e-05
39 *105:71 *462:B1 0
40 *105:71 *475:A1 3.97677e-05
41 *105:71 *166:16 1.08847e-05
42 *426:A2_N *105:24 5.7661e-06
43 *427:B *105:12 5.35423e-05
44 *459:B1 *105:57 1.08359e-05
45 *462:A2 *461:A2_N 3.69047e-06
46 *471:A2 *105:57 0
47 *471:A2 *105:71 0
48 *475:A2 *487:B2 0.000113073
49 *475:A2 *105:71 9.58126e-05
50 *477:A1 *105:71 0
51 *487:A2 *487:B2 5.62995e-05
52 *493:B1 *487:B2 0
53 *506:B1 *520:B2 0.000197984
54 *510:A1 *520:B2 5.49489e-05
55 *510:A1 *105:34 0.000180764
56 *510:A1 *105:36 5.52302e-05
57 *511:C1 *105:34 0.000349547
58 *511:C1 *105:36 7.43578e-06
59 *520:A2_N *520:B2 8.83839e-05
60 *520:B1 *520:B2 4.85049e-06
61 *521:B1 *105:34 0
62 *522:B1 *105:24 3.30352e-05
63 *527:A *105:34 0.000833726
64 *83:20 *105:34 0.000139066
65 *83:20 *105:57 2.05938e-05
66 *90:8 *105:12 5.74562e-05
67 *90:10 *105:12 0.000292706
68 *90:18 *105:12 5.83304e-05
69 *90:39 *105:34 0.000193318
70 *91:28 *520:B2 0.000544089
71 *92:54 *487:B2 0.000391396
72 *93:27 *105:24 0.000331057
73 *96:12 *487:B2 0.000218203
74 *97:8 *105:12 0
75 *97:14 *105:12 0
76 *97:14 *105:24 3.76006e-05
*RES
1 *454:X *105:12 30.1214 
2 *105:12 *105:24 20.9286 
3 *105:24 *105:34 26.1071 
4 *105:34 *105:36 0.535714 
5 *105:36 *520:B2 29.5143 
6 *105:36 *105:57 9.78571 
7 *105:57 *105:71 11.75 
8 *105:71 *475:B1 9.3 
9 *105:71 *487:B2 34.9786 
10 *105:57 *461:A2_N 15.9786 
11 *105:34 *510:B2 9.3 
12 *105:24 *409:A1 9.3 
13 *105:12 *425:A1_N 9.83571 
*END

*D_NET *106 0.00908909
*CONN
*I *426:B1 I *D sky130_fd_sc_hd__a2bb2o_1
*I *407:B1 I *D sky130_fd_sc_hd__a22o_1
*I *488:A2_N I *D sky130_fd_sc_hd__o2bb2a_1
*I *474:B1 I *D sky130_fd_sc_hd__a22o_1
*I *521:A2_N I *D sky130_fd_sc_hd__o2bb2a_1
*I *511:A2 I *D sky130_fd_sc_hd__a211o_1
*I *461:B1 I *D sky130_fd_sc_hd__a2bb2o_1
*I *455:X O *D sky130_fd_sc_hd__and3b_1
*CAP
1 *426:B1 0
2 *407:B1 0.000242703
3 *488:A2_N 0
4 *474:B1 0
5 *521:A2_N 0
6 *511:A2 0.000194868
7 *461:B1 0.000159438
8 *455:X 5.77576e-05
9 *106:79 0.000851079
10 *106:41 0.000417603
11 *106:26 0.000562964
12 *106:20 0.000514711
13 *106:14 0.000736521
14 *106:6 0.00106874
15 *407:B1 *407:A1 0.000177821
16 *407:B1 *182:30 5.01213e-05
17 *461:B1 *459:A1 0
18 *461:B1 *164:68 0.000135028
19 *511:A2 *511:A1 1.859e-05
20 *106:6 *176:83 9.90431e-05
21 *106:14 *488:A1_N 1.04232e-05
22 *106:14 *488:B1 8.07313e-05
23 *106:14 *108:10 9.41642e-05
24 *106:14 *176:83 1.82029e-05
25 *106:14 *176:87 9.50762e-05
26 *106:20 *474:B2 5.80706e-06
27 *106:20 *488:A1_N 0.000191937
28 *106:20 *490:C 0
29 *106:26 *474:B2 0.000103285
30 *106:26 *164:68 1.24368e-05
31 *106:26 *164:79 0.00016641
32 *106:41 *489:A1_N 4.038e-06
33 *106:79 *444:A 3.25247e-05
34 *106:79 *447:B 0.00015679
35 *106:79 *447:C 0.000173083
36 *106:79 *108:10 0
37 *106:79 *177:76 0
38 *106:79 *178:46 0.000150611
39 *106:79 *182:30 1.76039e-05
40 *106:79 *183:35 0
41 *406:B1 *407:B1 0.000100831
42 *406:B1 *106:79 0.000232663
43 *407:A2 *407:B1 3.03071e-05
44 *461:A2_N *461:B1 5.49489e-05
45 *475:A2 *106:41 2.31791e-05
46 *488:B2 *106:14 1.98839e-05
47 *523:A *511:A2 1.11453e-05
48 *83:20 *511:A2 7.83659e-05
49 *83:20 *106:41 0.000576084
50 *93:27 *106:79 0.000140216
51 *96:18 *106:14 7.32272e-05
52 *96:18 *106:20 5.87491e-06
53 *96:29 *106:20 0.000325823
54 *96:29 *106:26 0.000148196
55 *96:31 *106:26 7.90803e-05
56 *96:37 *106:41 7.15687e-05
57 *97:8 *106:79 0
58 *97:71 *106:41 0.00017309
59 *99:16 *106:26 4.038e-06
60 *99:35 *106:20 1.78353e-05
61 *102:14 *106:26 9.25014e-06
62 *105:34 *511:A2 7.83659e-05
63 *105:34 *106:41 0.000235012
*RES
1 *455:X *106:6 10.2464 
2 *106:6 *106:14 7.26786 
3 *106:14 *106:20 11.0536 
4 *106:20 *106:26 9.125 
5 *106:26 *461:B1 12.0321 
6 *106:26 *106:41 12.2143 
7 *106:41 *511:A2 17.4607 
8 *106:41 *521:A2_N 13.8 
9 *106:20 *474:B1 13.8 
10 *106:14 *488:A2_N 9.3 
11 *106:6 *106:79 18.8929 
12 *106:79 *407:B1 17.7464 
13 *106:79 *426:B1 13.8 
*END

*D_NET *107 0.015299
*CONN
*I *495:A1 I *D sky130_fd_sc_hd__a211o_1
*I *477:C1 I *D sky130_fd_sc_hd__a211o_1
*I *462:B1 I *D sky130_fd_sc_hd__a311o_1
*I *434:B2 I *D sky130_fd_sc_hd__a32o_1
*I *427:A I *D sky130_fd_sc_hd__or4_1
*I *414:A1_N I *D sky130_fd_sc_hd__o2bb2a_1
*I *511:B1 I *D sky130_fd_sc_hd__a211o_1
*I *428:A1_N I *D sky130_fd_sc_hd__o2bb2a_1
*I *456:Y O *D sky130_fd_sc_hd__nor3_4
*CAP
1 *495:A1 8.15504e-05
2 *477:C1 0
3 *462:B1 0.000600717
4 *434:B2 0
5 *427:A 2.23854e-05
6 *414:A1_N 0.000450351
7 *511:B1 0.000273815
8 *428:A1_N 0.000163631
9 *456:Y 8.5642e-05
10 *107:89 0.00103104
11 *107:79 0.00179332
12 *107:39 0.00113346
13 *107:37 0.000548275
14 *107:22 0.000422871
15 *107:14 0.00112731
16 *107:8 0.00235175
17 *414:A1_N *510:B1 0
18 *414:A1_N *108:14 0
19 *414:A1_N *108:24 0.000129175
20 *428:A1_N *560:A 1.37693e-05
21 *428:A1_N *183:10 3.9745e-05
22 *462:B1 *460:A1 0
23 *462:B1 *108:59 3.03656e-05
24 *495:A1 *429:D 4.75428e-05
25 *495:A1 *495:A2 1.02504e-05
26 *495:A1 *495:B1 6.32633e-05
27 *495:A1 *179:16 0
28 *511:B1 *511:A1 0.0004615
29 *107:14 *442:B2 1.60258e-05
30 *107:14 *552:A 0
31 *107:14 *178:8 4.79842e-05
32 *107:39 *407:A1 0.000180249
33 *107:39 *407:B2 5.71472e-05
34 *107:79 *437:A 5.33374e-05
35 *107:79 *490:A 0.000356035
36 *107:79 *495:B1 0.00010096
37 *107:79 *530:A 5.52238e-05
38 *107:79 *177:6 1.65169e-05
39 *107:79 *177:66 0.000395675
40 *107:79 *178:8 0.000100793
41 *107:89 *429:C 0
42 *107:89 *475:B2 3.9019e-05
43 *107:89 *476:A2 0.000119738
44 *107:89 *493:A1 1.15916e-05
45 *107:89 *494:B 5.49544e-05
46 *107:89 *494:C 9.83442e-05
47 *107:89 *495:C1 0.000224315
48 *107:89 *117:66 1.64621e-05
49 *107:89 *134:18 8.83859e-05
50 carry *107:14 6.27272e-06
51 *405:B *414:A1_N 0
52 *407:A2 *511:B1 5.33334e-05
53 *407:A2 *107:39 0.000175423
54 *408:B1 *107:39 9.46929e-05
55 *410:B1 *414:A1_N 0.000127446
56 *411:B1 *414:A1_N 0
57 *412:A *414:A1_N 0
58 *417:A *107:22 4.23086e-05
59 *418:A3 *414:A1_N 2.90498e-05
60 *423:A *107:14 4.51611e-05
61 *425:B1 *107:22 1.92789e-05
62 *427:D *107:39 5.33334e-05
63 *428:A2_N *428:A1_N 2.61337e-05
64 *428:B2 *428:A1_N 0
65 *428:B2 *107:37 7.02611e-05
66 *433:A2 *428:A1_N 0.000367389
67 *433:A2 *107:22 2.24646e-05
68 *433:A2 *107:37 5.33005e-05
69 *433:B1_N *107:22 6.30292e-05
70 *434:A2 *107:14 7.02611e-05
71 *434:B1 *107:14 1.1671e-05
72 *462:A2 *462:B1 3.4846e-06
73 *477:A1 *462:B1 0.000471509
74 *487:A2 *107:79 5.01393e-05
75 *487:B2 *107:79 9.7659e-05
76 *540:A *107:14 0
77 *551:A *107:14 0.000283976
78 *61:33 *428:A1_N 1.4763e-05
79 *70:8 *427:A 0
80 *70:12 *428:A1_N 4.46186e-06
81 *70:12 *107:22 7.83366e-05
82 *72:14 *107:22 3.34366e-05
83 *72:18 *107:22 1.5942e-05
84 *92:16 *107:14 0
85 *92:75 *462:B1 0
86 *93:27 *414:A1_N 0
87 *105:71 *462:B1 0
*RES
1 *456:Y *107:8 14.7464 
2 *107:8 *107:14 22.9286 
3 *107:14 *107:22 8.42857 
4 *107:22 *428:A1_N 18.617 
5 *107:22 *107:37 6.67857 
6 *107:37 *107:39 8.75 
7 *107:39 *511:B1 15.6036 
8 *107:39 *414:A1_N 25.983 
9 *107:37 *427:A 9.72857 
10 *107:14 *434:B2 9.3 
11 *107:8 *107:79 28.5179 
12 *107:79 *107:89 13.7857 
13 *107:89 *462:B1 28.7231 
14 *107:89 *477:C1 13.8 
15 *107:79 *495:A1 20.2464 
*END

*D_NET *108 0.0119167
*CONN
*I *479:A1 I *D sky130_fd_sc_hd__o22a_1
*I *464:B2 I *D sky130_fd_sc_hd__o32a_1
*I *409:C1 I *D sky130_fd_sc_hd__o211a_1
*I *502:B1 I *D sky130_fd_sc_hd__a21o_1
*I *519:B1 I *D sky130_fd_sc_hd__a31o_1
*I *457:X O *D sky130_fd_sc_hd__or3_2
*CAP
1 *479:A1 0.00021244
2 *464:B2 0.000250276
3 *409:C1 8.84629e-05
4 *502:B1 3.3034e-05
5 *519:B1 9.70045e-05
6 *457:X 0.000225744
7 *108:59 0.00224041
8 *108:24 0.000574932
9 *108:14 0.00122665
10 *108:10 0.00269674
11 *464:B2 *464:A1 4.1331e-06
12 *464:B2 *152:12 0
13 *479:A1 *478:A3 3.92854e-05
14 *479:A1 *479:B1 0.000120519
15 *479:A1 *479:B2 8.0396e-05
16 *479:A1 *152:12 0
17 *502:B1 *502:A2 1.17091e-05
18 *519:B1 *502:A1 2.31833e-05
19 *519:B1 *145:24 0.000143967
20 *519:B1 *146:44 1.83136e-05
21 *519:B1 *148:14 1.42712e-05
22 *108:14 *406:A1 0.000222885
23 *108:14 *407:B2 5.53592e-05
24 *108:14 *447:C 0
25 *108:14 *511:A1 0
26 *108:14 *153:18 5.41794e-05
27 *108:14 *153:24 0.000196269
28 *108:14 *178:46 0
29 *108:14 *179:22 0
30 *108:24 *502:A2 9.90367e-05
31 *108:24 *510:B1 8.50273e-05
32 *108:24 *146:44 4.45363e-05
33 *108:24 *147:37 4.87854e-05
34 *409:A2 *409:C1 7.72332e-05
35 *411:B1 *108:24 0
36 *414:A1_N *108:14 0
37 *414:A1_N *108:24 0.000129175
38 *462:B1 *108:59 3.03656e-05
39 *478:A1 *464:B2 4.50033e-05
40 *478:A1 *479:A1 0.000162849
41 *487:B2 *108:10 9.91086e-05
42 *493:B1 *108:10 0
43 *493:B1 *108:14 0
44 *527:A *409:C1 1.02821e-05
45 *59:10 *519:B1 5.49544e-05
46 *59:10 *108:24 0.000858018
47 *90:39 *409:C1 0.000144184
48 *90:39 *108:24 0.000143566
49 *91:12 *108:14 0.000153054
50 *92:75 *464:B2 0
51 *93:27 *108:14 0.000308645
52 *97:44 *108:14 7.25296e-05
53 *105:24 *108:14 0.00031275
54 *105:34 *409:C1 4.18895e-05
55 *105:34 *108:24 0.000271352
56 *106:14 *108:10 9.41642e-05
57 *106:79 *108:10 0
*RES
1 *457:X *108:10 16.8446 
2 *108:10 *108:14 21.1696 
3 *108:14 *108:24 23.0893 
4 *108:24 *519:B1 20.7821 
5 *108:24 *502:B1 10.0321 
6 *108:14 *409:C1 11.9071 
7 *108:10 *108:59 10.11 
8 *108:59 *464:B2 18.3268 
9 *108:59 *479:A1 18.9339 
*END

*D_NET *109 0.000457128
*CONN
*I *464:A1 I *D sky130_fd_sc_hd__o32a_1
*I *458:X O *D sky130_fd_sc_hd__o21a_1
*CAP
1 *464:A1 0.000176017
2 *458:X 0.000176017
3 *464:A1 *152:12 0
4 *464:B2 *464:A1 4.1331e-06
5 *506:B1 *464:A1 0
6 *92:75 *464:A1 0
7 *101:39 *464:A1 0.00010096
*RES
1 *458:X *464:A1 30.4929 
*END

*D_NET *110 0.000516078
*CONN
*I *460:B1_N I *D sky130_fd_sc_hd__a21bo_1
*I *459:X O *D sky130_fd_sc_hd__o22a_1
*CAP
1 *460:B1_N 0.000138166
2 *459:X 0.000138166
3 *460:B1_N *166:16 0.000131659
4 *460:A2 *460:B1_N 2.95726e-05
5 *105:71 *460:B1_N 7.85137e-05
*RES
1 *459:X *460:B1_N 29.9929 
*END

*D_NET *111 0.000749369
*CONN
*I *462:C1 I *D sky130_fd_sc_hd__a311o_1
*I *460:X O *D sky130_fd_sc_hd__a21bo_1
*CAP
1 *462:C1 0.000222687
2 *460:X 0.000222687
3 *462:C1 *464:A2 6.0715e-05
4 *462:C1 *166:16 9.77118e-05
5 *462:A2 *462:C1 4.23148e-05
6 *471:A2 *462:C1 0.000103253
*RES
1 *460:X *462:C1 31.6714 
*END

*D_NET *112 0.000951593
*CONN
*I *464:A2 I *D sky130_fd_sc_hd__o32a_1
*I *461:X O *D sky130_fd_sc_hd__a2bb2o_1
*CAP
1 *464:A2 0.000289196
2 *461:X 0.000289196
3 *464:A2 *464:A3 0.000100625
4 *464:A2 *464:B1 0
5 *464:A2 *167:10 0.000141554
6 *462:A1 *464:A2 4.25652e-05
7 *462:A2 *464:A2 2.77413e-05
8 *462:C1 *464:A2 6.0715e-05
*RES
1 *461:X *464:A2 24.5107 
*END

*D_NET *113 0.000354688
*CONN
*I *464:A3 I *D sky130_fd_sc_hd__o32a_1
*I *462:X O *D sky130_fd_sc_hd__a311o_1
*CAP
1 *464:A3 0.000127032
2 *462:X 0.000127032
3 *462:A1 *464:A3 0
4 *464:A2 *464:A3 0.000100625
*RES
1 *462:X *464:A3 21.2071 
*END

*D_NET *114 0.000222843
*CONN
*I *464:B1 I *D sky130_fd_sc_hd__o32a_1
*I *463:X O *D sky130_fd_sc_hd__xor2_1
*CAP
1 *464:B1 0.000111421
2 *463:X 0.000111421
3 *464:A2 *464:B1 0
*RES
1 *463:X *464:B1 20.3857 
*END

*D_NET *115 0.00230444
*CONN
*I *467:A I *D sky130_fd_sc_hd__nand2_2
*I *485:A1 I *D sky130_fd_sc_hd__a21bo_1
*I *477:A2 I *D sky130_fd_sc_hd__a211o_1
*I *465:X O *D sky130_fd_sc_hd__or2_1
*CAP
1 *467:A 7.71672e-05
2 *485:A1 0
3 *477:A2 0.000248789
4 *465:X 0.000184167
5 *115:12 0.000510123
6 *467:A *485:A2 4.25176e-05
7 *467:A *116:23 9.08883e-05
8 *467:A *134:18 9.74665e-05
9 *477:A2 *477:B1 3.41517e-06
10 *477:A2 *478:A2 0
11 *477:A2 *478:B1 0.000143375
12 *477:A2 *479:B1 0.000228514
13 *477:A2 *116:10 2.61337e-05
14 *115:12 *478:A2 5.41794e-05
15 *115:12 *485:A2 0.000407405
16 *115:12 *485:B1_N 2.44318e-05
17 *115:12 *491:B1 4.27437e-05
18 *115:12 *116:10 0
19 *115:12 *117:10 8.3725e-05
20 *115:12 *152:12 3.93986e-05
*RES
1 *465:X *115:12 23.7643 
2 *115:12 *477:A2 23.4607 
3 *115:12 *485:A1 9.3 
4 *115:12 *467:A 11.4786 
*END

*D_NET *116 0.00238963
*CONN
*I *476:A2 I *D sky130_fd_sc_hd__o21ai_1
*I *467:B I *D sky130_fd_sc_hd__nand2_2
*I *485:B1_N I *D sky130_fd_sc_hd__a21bo_1
*I *466:Y O *D sky130_fd_sc_hd__nand2_1
*CAP
1 *476:A2 0.000208182
2 *467:B 2.44851e-05
3 *485:B1_N 4.04905e-05
4 *466:Y 0.000103485
5 *116:23 0.000341574
6 *116:10 0.000252883
7 *476:A2 *429:C 2.8266e-06
8 *476:A2 *476:B1 2.24668e-05
9 *476:A2 *479:B1 9.74665e-05
10 *476:A2 *494:A 1.98839e-05
11 *476:A2 *494:B 7.88916e-05
12 *476:A2 *494:C 5.33005e-05
13 *476:A2 *504:A1 0
14 *476:A2 *117:66 1.67291e-05
15 *485:B1_N *472:A 0
16 *485:B1_N *485:A2 5.52238e-05
17 *485:B1_N *117:10 0.00010096
18 *116:10 *478:A2 0
19 *116:10 *485:A2 5.41794e-05
20 *116:10 *491:B1 7.83659e-05
21 *116:10 *504:A1 0
22 *116:23 *485:A2 0.000139637
23 *116:23 *494:A 1.74352e-05
24 *116:23 *117:6 0.000142219
25 *116:23 *117:10 0.000255846
26 *116:23 *117:66 1.33343e-05
27 *116:23 *134:18 8.57572e-06
28 *467:A *116:23 9.08883e-05
29 *477:A2 *116:10 2.61337e-05
30 *107:89 *476:A2 0.000119738
31 *115:12 *485:B1_N 2.44318e-05
32 *115:12 *116:10 0
*RES
1 *466:Y *116:10 20.55 
2 *116:10 *485:B1_N 10.675 
3 *116:10 *116:23 4.25 
4 *116:23 *467:B 9.72857 
5 *116:23 *476:A2 22.2464 
*END

*D_NET *117 0.00588241
*CONN
*I *493:A1 I *D sky130_fd_sc_hd__a31o_1
*I *475:B2 I *D sky130_fd_sc_hd__o22a_1
*I *504:A1 I *D sky130_fd_sc_hd__a311o_1
*I *472:A I *D sky130_fd_sc_hd__nand2_1
*I *473:A I *D sky130_fd_sc_hd__or2_1
*I *469:A I *D sky130_fd_sc_hd__xnor2_1
*I *467:Y O *D sky130_fd_sc_hd__nand2_2
*CAP
1 *493:A1 0.000197141
2 *475:B2 0.000192083
3 *504:A1 0.000164524
4 *472:A 3.27136e-05
5 *473:A 4.55164e-05
6 *469:A 0.000199034
7 *467:Y 0
8 *117:66 0.000571689
9 *117:16 0.000505671
10 *117:10 0.000756005
11 *117:6 0.000714465
12 *117:4 0.000270236
13 *469:A *429:C 8.70195e-05
14 *469:A *479:A2 4.88546e-05
15 *469:A *479:B1 2.44318e-05
16 *469:A *479:B2 3.85065e-05
17 *469:A *168:6 0.000229456
18 *472:A *485:A2 9.90431e-05
19 *473:A *118:14 9.25275e-05
20 *473:A *121:19 0
21 *475:B2 *460:A1 3.27461e-05
22 *475:B2 *175:10 8.71005e-05
23 *475:B2 *175:12 4.51972e-05
24 *493:A1 *494:B 0
25 *493:A1 *504:A3 4.96934e-06
26 *493:A1 *504:C1 2.67064e-05
27 *493:A1 *175:10 0.000113213
28 *504:A1 *491:B1 0
29 *504:A1 *494:A 5.93614e-05
30 *504:A1 *494:B 1.71144e-05
31 *117:10 *485:A2 7.48301e-06
32 *117:16 *469:B 2.28598e-05
33 *117:16 *472:B 5.33005e-05
34 *117:16 *485:A2 1.54142e-05
35 *117:16 *118:14 0.00025486
36 *117:16 *121:19 0
37 *117:66 *494:B 0.00013833
38 *117:66 *495:C1 5.49489e-05
39 *476:A2 *504:A1 0
40 *476:A2 *117:66 1.67291e-05
41 *485:B1_N *472:A 0
42 *485:B1_N *117:10 0.00010096
43 *107:89 *475:B2 3.9019e-05
44 *107:89 *493:A1 1.15916e-05
45 *107:89 *117:66 1.64621e-05
46 *115:12 *117:10 8.3725e-05
47 *116:10 *504:A1 0
48 *116:23 *117:6 0.000142219
49 *116:23 *117:10 0.000255846
50 *116:23 *117:66 1.33343e-05
*RES
1 *467:Y *117:4 9.3 
2 *117:4 *117:6 1.35714 
3 *117:6 *117:10 6.60714 
4 *117:10 *117:16 9.99107 
5 *117:16 *469:A 18.8804 
6 *117:16 *473:A 14.9875 
7 *117:10 *472:A 10.675 
8 *117:6 *504:A1 21.1571 
9 *117:4 *117:66 7.08929 
10 *117:66 *475:B2 17.8714 
11 *117:66 *493:A1 17.6214 
*END

*D_NET *118 0.00462725
*CONN
*I *485:A2 I *D sky130_fd_sc_hd__a21bo_1
*I *469:B I *D sky130_fd_sc_hd__xnor2_1
*I *468:Y O *D sky130_fd_sc_hd__o21ai_1
*CAP
1 *485:A2 0.000175545
2 *469:B 0.000359729
3 *468:Y 0.000467518
4 *118:14 0.00100279
5 *469:B *472:B 0.000272371
6 *469:B *121:19 7.49239e-05
7 *469:B *121:34 7.79781e-06
8 *485:A2 *478:A2 0
9 *485:A2 *491:B1 0.000216121
10 *485:A2 *122:6 0.000181796
11 *118:14 *121:8 0
12 *118:14 *121:19 0
13 *118:14 *152:12 0.000465748
14 result[0] *118:14 6.57026e-05
15 *467:A *485:A2 4.25176e-05
16 *471:A1 *118:14 7.85652e-05
17 *472:A *485:A2 9.90431e-05
18 *473:A *118:14 9.25275e-05
19 *485:B1_N *485:A2 5.52238e-05
20 *101:16 *118:14 6.74911e-05
21 *115:12 *485:A2 0.000407405
22 *116:10 *485:A2 5.41794e-05
23 *116:23 *485:A2 0.000139637
24 *117:10 *485:A2 7.48301e-06
25 *117:16 *469:B 2.28598e-05
26 *117:16 *485:A2 1.54142e-05
27 *117:16 *118:14 0.00025486
*RES
1 *468:Y *118:14 30.925 
2 *118:14 *469:B 25.3893 
3 *118:14 *485:A2 25.0321 
*END

*D_NET *119 0.000570712
*CONN
*I *479:A2 I *D sky130_fd_sc_hd__o22a_1
*I *469:Y O *D sky130_fd_sc_hd__xnor2_1
*CAP
1 *479:A2 5.62676e-05
2 *469:Y 5.62676e-05
3 *479:A2 *429:C 0.000269422
4 *479:A2 *479:B1 0.0001399
5 *469:A *479:A2 4.88546e-05
*RES
1 *469:Y *479:A2 21.1893 
*END

*D_NET *120 0.000206736
*CONN
*I *471:B1 I *D sky130_fd_sc_hd__a21o_1
*I *470:X O *D sky130_fd_sc_hd__and2b_1
*CAP
1 *471:B1 0.00010137
2 *470:X 0.00010137
3 *471:A2 *471:B1 3.99614e-06
*RES
1 *470:X *471:B1 20.3857 
*END

*D_NET *121 0.00443454
*CONN
*I *493:A2 I *D sky130_fd_sc_hd__a31o_1
*I *504:A2 I *D sky130_fd_sc_hd__a311o_1
*I *472:B I *D sky130_fd_sc_hd__nand2_1
*I *473:B I *D sky130_fd_sc_hd__or2_1
*I *471:X O *D sky130_fd_sc_hd__a21o_1
*CAP
1 *493:A2 0.000151187
2 *504:A2 2.00462e-05
3 *472:B 9.08973e-05
4 *473:B 5.59217e-05
5 *471:X 0.000120154
6 *121:34 0.000695781
7 *121:19 0.000875588
8 *121:8 0.000436219
9 *473:B *554:A 0.000142856
10 *493:A2 *491:C1 0.000351536
11 *493:A2 *494:C 5.33005e-05
12 *493:A2 *499:A1 1.17091e-05
13 *493:A2 *504:A3 2.19406e-05
14 *493:A2 *504:B1 2.59355e-05
15 *493:A2 *504:C1 3.77147e-05
16 *504:A2 *504:A3 1.02132e-05
17 *121:8 *555:A 0
18 *121:19 *555:A 0
19 *121:34 *465:A 0.000188586
20 *121:34 *465:B 1.54142e-05
21 *121:34 *491:C1 6.24856e-05
22 *121:34 *504:A3 2.07878e-05
23 *121:34 *152:12 0.00052935
24 *121:34 *155:18 5.33005e-05
25 *121:34 *175:67 5.52238e-05
26 result[1] *121:8 0
27 *469:B *472:B 0.000272371
28 *469:B *121:19 7.49239e-05
29 *469:B *121:34 7.79781e-06
30 *473:A *121:19 0
31 *117:16 *472:B 5.33005e-05
32 *117:16 *121:19 0
33 *118:14 *121:8 0
34 *118:14 *121:19 0
*RES
1 *471:X *121:8 15.7464 
2 *121:8 *473:B 15.1571 
3 *121:8 *121:19 4.98214 
4 *121:19 *472:B 16.3893 
5 *121:19 *121:34 16.625 
6 *121:34 *504:A2 9.72857 
7 *121:34 *493:A2 13.5679 
*END

*D_NET *122 0.00256681
*CONN
*I *491:B1 I *D sky130_fd_sc_hd__o211a_1
*I *478:A2 I *D sky130_fd_sc_hd__a31o_1
*I *472:Y O *D sky130_fd_sc_hd__nand2_1
*CAP
1 *491:B1 0.000386924
2 *478:A2 0.000217724
3 *472:Y 0.000130483
4 *122:6 0.000735131
5 *478:A2 *478:A3 1.02504e-05
6 *478:A2 *152:12 6.19551e-05
7 *491:B1 *155:18 0.000220441
8 *491:B1 *175:67 0.000220441
9 *477:A2 *478:A2 0
10 *478:A1 *478:A2 1.02504e-05
11 *485:A2 *478:A2 0
12 *485:A2 *491:B1 0.000216121
13 *485:A2 *122:6 0.000181796
14 *504:A1 *491:B1 0
15 *115:12 *478:A2 5.41794e-05
16 *115:12 *491:B1 4.27437e-05
17 *116:10 *478:A2 0
18 *116:10 *491:B1 7.83659e-05
*RES
1 *472:Y *122:6 11.0679 
2 *122:6 *478:A2 22.425 
3 *122:6 *491:B1 25.675 
*END

*D_NET *123 0.000511277
*CONN
*I *478:A3 I *D sky130_fd_sc_hd__a31o_1
*I *473:X O *D sky130_fd_sc_hd__or2_1
*CAP
1 *478:A3 0.000166839
2 *473:X 0.000166839
3 *478:A3 *554:A 5.23142e-05
4 *478:A3 *152:12 6.09572e-05
5 *478:A1 *478:A3 1.47919e-05
6 *478:A2 *478:A3 1.02504e-05
7 *479:A1 *478:A3 3.92854e-05
*RES
1 *473:X *478:A3 30.6 
*END

*D_NET *124 0.00152378
*CONN
*I *477:B1 I *D sky130_fd_sc_hd__a211o_1
*I *474:X O *D sky130_fd_sc_hd__a22o_1
*CAP
1 *477:B1 0.000399027
2 *474:X 0.000399027
3 *477:B1 *429:D 9.28524e-05
4 *477:B1 *460:A1 0
5 *477:B1 *476:B1 0.000122592
6 *477:B1 *479:B1 2.94004e-05
7 *477:B1 *488:A1_N 0.000137983
8 *477:B1 *175:12 7.80714e-06
9 *475:A2 *477:B1 9.97552e-05
10 *476:A1 *477:B1 0.000222666
11 *477:A2 *477:B1 3.41517e-06
12 *83:20 *477:B1 9.25014e-06
*RES
1 *474:X *477:B1 36.0286 
*END

*D_NET *125 0.000877862
*CONN
*I *476:B1 I *D sky130_fd_sc_hd__o21ai_1
*I *475:X O *D sky130_fd_sc_hd__o22a_1
*CAP
1 *476:B1 0.000192431
2 *475:X 0.000192431
3 *476:B1 *479:B1 5.49544e-05
4 *476:B1 *175:10 7.6644e-05
5 *476:B1 *175:12 7.83587e-05
6 *476:A1 *476:B1 0.000137983
7 *476:A2 *476:B1 2.24668e-05
8 *477:B1 *476:B1 0.000122592
*RES
1 *475:X *476:B1 32.7339 
*END

*D_NET *126 0.00242156
*CONN
*I *479:B1 I *D sky130_fd_sc_hd__o22a_1
*I *476:Y O *D sky130_fd_sc_hd__o21ai_1
*CAP
1 *479:B1 0.000350051
2 *476:Y 0.000350051
3 *479:B1 *429:C 0.000631955
4 *479:B1 *478:B1 0.000271643
5 *479:B1 *479:B2 9.67416e-05
6 *469:A *479:B1 2.44318e-05
7 *476:A2 *479:B1 9.74665e-05
8 *476:B1 *479:B1 5.49544e-05
9 *477:A1 *479:B1 2.59355e-05
10 *477:A2 *479:B1 0.000228514
11 *477:B1 *479:B1 2.94004e-05
12 *479:A1 *479:B1 0.000120519
13 *479:A2 *479:B1 0.0001399
*RES
1 *476:Y *479:B1 31.2071 
*END

*D_NET *127 0.000749071
*CONN
*I *478:B1 I *D sky130_fd_sc_hd__a31o_1
*I *477:X O *D sky130_fd_sc_hd__a211o_1
*CAP
1 *478:B1 0.000167026
2 *477:X 0.000167026
3 *477:A2 *478:B1 0.000143375
4 *479:B1 *478:B1 0.000271643
*RES
1 *477:X *478:B1 22.8321 
*END

*D_NET *128 0.000499413
*CONN
*I *479:B2 I *D sky130_fd_sc_hd__o22a_1
*I *478:X O *D sky130_fd_sc_hd__a31o_1
*CAP
1 *479:B2 0.000141884
2 *478:X 0.000141884
3 *469:A *479:B2 3.85065e-05
4 *479:A1 *479:B2 8.0396e-05
5 *479:B1 *479:B2 9.67416e-05
*RES
1 *478:X *479:B2 21.225 
*END

*D_NET *129 0.001535
*CONN
*I *483:A I *D sky130_fd_sc_hd__nor2_1
*I *499:B1 I *D sky130_fd_sc_hd__a21oi_1
*I *480:X O *D sky130_fd_sc_hd__and2_1
*CAP
1 *483:A 0.000167019
2 *499:B1 9.04481e-05
3 *480:X 3.96486e-05
4 *129:6 0.000297116
5 *483:A *495:A2 0
6 *483:A *495:B1 1.76135e-05
7 *483:A *556:A 0
8 *483:A *132:12 7.83659e-05
9 *483:A *133:23 5.52238e-05
10 *483:A *179:8 2.58997e-05
11 *483:A *179:10 3.55407e-05
12 *483:A *179:16 3.17163e-05
13 *499:B1 *495:C1 0.000161878
14 *499:B1 *132:12 9.99644e-06
15 *129:6 *132:12 1.40415e-05
16 *129:6 *179:57 2.89114e-05
17 *493:B1 *499:B1 0.000353086
18 *493:B1 *129:6 0.000128496
*RES
1 *480:X *129:6 10.6571 
2 *129:6 *499:B1 12.7107 
3 *129:6 *483:A 21.9964 
*END

*D_NET *130 0.000690634
*CONN
*I *488:B1 I *D sky130_fd_sc_hd__o2bb2a_1
*I *481:Y O *D sky130_fd_sc_hd__nand2_1
*CAP
1 *488:B1 0.000272037
2 *481:Y 0.000272037
3 *488:B1 *487:A1 0
4 *488:B1 *487:A3 0
5 *487:B2 *488:B1 6.58289e-05
6 *493:B1 *488:B1 0
7 *106:14 *488:B1 8.07313e-05
*RES
1 *481:Y *488:B1 33.0286 
*END

*D_NET *131 0.00189152
*CONN
*I *487:A3 I *D sky130_fd_sc_hd__o32a_1
*I *483:B I *D sky130_fd_sc_hd__nor2_1
*I *482:Y O *D sky130_fd_sc_hd__nor2_1
*CAP
1 *487:A3 0.000194168
2 *483:B 0.000297609
3 *482:Y 0
4 *131:4 0.000491776
5 *483:B *482:A 5.17614e-05
6 *483:B *482:B 2.65105e-05
7 *483:B *484:A 7.32955e-05
8 *483:B *503:A_N 9.90367e-05
9 *483:B *133:23 0.000358971
10 *483:B *156:8 2.24646e-05
11 *483:B *156:12 0.00012401
12 *483:B *179:8 0
13 *483:B *179:10 0
14 *483:B *179:84 5.33433e-05
15 *487:A3 *487:A1 5.80706e-06
16 *487:A3 *487:B1 9.27685e-05
17 *487:A3 *156:12 0
18 *488:B1 *487:A3 0
*RES
1 *482:Y *131:4 9.3 
2 *131:4 *483:B 25.425 
3 *131:4 *487:A3 21.9964 
*END

*D_NET *132 0.00367234
*CONN
*I *499:A1 I *D sky130_fd_sc_hd__a21oi_1
*I *491:C1 I *D sky130_fd_sc_hd__o211a_1
*I *483:Y O *D sky130_fd_sc_hd__nor2_1
*CAP
1 *499:A1 0.000103813
2 *491:C1 0.000626388
3 *483:Y 0.000478406
4 *132:12 0.00120861
5 *491:C1 *152:12 0.000136951
6 *491:C1 *175:67 0.000153047
7 *499:A1 *495:C1 6.05161e-06
8 *132:12 *495:C1 0.000210742
9 *132:12 *179:10 7.83659e-05
10 *483:A *132:12 7.83659e-05
11 *493:A2 *491:C1 0.000351536
12 *493:A2 *499:A1 1.17091e-05
13 *493:B1 *491:C1 3.81416e-06
14 *493:B1 *499:A1 0.00013802
15 *499:B1 *132:12 9.99644e-06
16 *121:34 *491:C1 6.24856e-05
17 *129:6 *132:12 1.40415e-05
*RES
1 *483:Y *132:12 25.2107 
2 *132:12 *491:C1 27.3536 
3 *132:12 *499:A1 12.2464 
*END

*D_NET *133 0.00493364
*CONN
*I *486:A I *D sky130_fd_sc_hd__xnor2_1
*I *493:A3 I *D sky130_fd_sc_hd__a31o_1
*I *504:A3 I *D sky130_fd_sc_hd__a311o_1
*I *492:B I *D sky130_fd_sc_hd__and3b_1
*I *487:B1 I *D sky130_fd_sc_hd__o32a_1
*I *484:Y O *D sky130_fd_sc_hd__xnor2_2
*CAP
1 *486:A 0
2 *493:A3 0
3 *504:A3 0.000341245
4 *492:B 3.96549e-05
5 *487:B1 0.000237816
6 *484:Y 5.82622e-05
7 *133:40 0.000400971
8 *133:29 0.000306276
9 *133:23 0.000759987
10 *133:6 0.00084917
11 *487:B1 *437:B 0
12 *487:B1 *156:12 0
13 *492:B *141:12 5.49489e-05
14 *504:A3 *465:B 1.3701e-05
15 *504:A3 *494:C 7.67667e-05
16 *504:A3 *504:B1 2.84026e-05
17 *504:A3 *504:C1 0.000192147
18 *133:23 *484:A 1.56e-05
19 *133:23 *495:A2 2.40379e-05
20 *133:23 *503:A_N 1.98839e-05
21 *133:23 *504:C1 0.000534222
22 *133:29 *504:C1 3.98559e-05
23 *133:29 *141:12 5.33005e-05
24 *133:29 *175:57 0.000148996
25 *133:40 *504:C1 0.000121248
26 *133:40 *141:12 5.22717e-05
27 *483:A *133:23 5.52238e-05
28 *483:B *133:23 0.000358971
29 *487:A3 *487:B1 9.27685e-05
30 *493:A1 *504:A3 4.96934e-06
31 *493:A2 *504:A3 2.19406e-05
32 *504:A2 *504:A3 1.02132e-05
33 *121:34 *504:A3 2.07878e-05
*RES
1 *484:Y *133:6 10.2464 
2 *133:6 *487:B1 22.9786 
3 *133:6 *133:23 12.375 
4 *133:23 *133:29 4.16071 
5 *133:29 *492:B 9.83571 
6 *133:29 *133:40 6.14286 
7 *133:40 *504:A3 18.9786 
8 *133:40 *493:A3 13.8 
9 *133:23 *486:A 9.3 
*END

*D_NET *134 0.00201582
*CONN
*I *486:B I *D sky130_fd_sc_hd__xnor2_1
*I *499:A2 I *D sky130_fd_sc_hd__a21oi_1
*I *485:X O *D sky130_fd_sc_hd__a21bo_1
*CAP
1 *486:B 8.44489e-05
2 *499:A2 0
3 *485:X 0.000434176
4 *134:18 0.000518625
5 *486:B *495:C1 3.51442e-05
6 *486:B *556:A 0
7 *486:B *147:26 1.00375e-05
8 *486:B *175:10 0.000191163
9 *134:18 *494:A 0.000136682
10 *134:18 *494:C 0.000116447
11 *134:18 *495:C1 0.000148196
12 *134:18 *175:10 0.000146474
13 *467:A *134:18 9.74665e-05
14 *107:89 *134:18 8.83859e-05
15 *116:23 *134:18 8.57572e-06
*RES
1 *485:X *134:18 22.3179 
2 *134:18 *499:A2 13.8 
3 *134:18 *486:B 16.3536 
*END

*D_NET *135 0.000467605
*CONN
*I *495:A2 I *D sky130_fd_sc_hd__a211o_1
*I *486:Y O *D sky130_fd_sc_hd__xnor2_1
*CAP
1 *495:A2 0.000176225
2 *486:Y 0.000176225
3 *495:A2 *429:D 5.80706e-06
4 *495:A2 *556:A 7.50601e-05
5 *483:A *495:A2 0
6 *495:A1 *495:A2 1.02504e-05
7 *133:23 *495:A2 2.40379e-05
*RES
1 *486:Y *495:A2 30.4929 
*END

*D_NET *136 0.000676818
*CONN
*I *490:A I *D sky130_fd_sc_hd__nand3_1
*I *487:X O *D sky130_fd_sc_hd__o32a_1
*CAP
1 *490:A 0.000160392
2 *487:X 0.000160392
3 *107:79 *490:A 0.000356035
*RES
1 *487:X *490:A 22.4393 
*END

*D_NET *137 0.000612825
*CONN
*I *490:B I *D sky130_fd_sc_hd__nand3_1
*I *488:X O *D sky130_fd_sc_hd__o2bb2a_1
*CAP
1 *490:B 0.000152478
2 *488:X 0.000152478
3 *490:B *490:C 8.15939e-05
4 *490:B *179:16 0.000153047
5 *96:18 *490:B 7.32272e-05
*RES
1 *488:X *490:B 30.9036 
*END

*D_NET *138 0.00238929
*CONN
*I *490:C I *D sky130_fd_sc_hd__nand3_1
*I *489:X O *D sky130_fd_sc_hd__o2bb2a_1
*CAP
1 *490:C 0.000675308
2 *489:X 0.000675308
3 *490:C *429:D 0
4 *490:C *489:A1_N 2.44318e-05
5 *490:C *179:16 0.000231966
6 *490:C *179:22 0.000176596
7 *490:B *490:C 8.15939e-05
8 *91:28 *490:C 0.000180955
9 *96:29 *490:C 0
10 *96:37 *490:C 0
11 *99:16 *490:C 7.6644e-05
12 *99:35 *490:C 0.00022117
13 *102:14 *490:C 4.53124e-05
14 *106:20 *490:C 0
*RES
1 *489:X *490:C 42.6357 
*END

*D_NET *139 0.000465784
*CONN
*I *495:B1 I *D sky130_fd_sc_hd__a211o_1
*I *490:Y O *D sky130_fd_sc_hd__nand3_1
*CAP
1 *495:B1 0.000141973
2 *490:Y 0.000141973
3 *483:A *495:B1 1.76135e-05
4 *495:A1 *495:B1 6.32633e-05
5 *107:79 *495:B1 0.00010096
*RES
1 *490:Y *495:B1 30.1893 
*END

*D_NET *140 0.00116027
*CONN
*I *494:A I *D sky130_fd_sc_hd__nor3_1
*I *491:X O *D sky130_fd_sc_hd__o211a_1
*CAP
1 *494:A 0.000301026
2 *491:X 0.000301026
3 *494:A *492:A_N 2.98372e-05
4 *494:A *494:B 0.000143625
5 *494:A *494:C 5.49544e-05
6 *494:A *504:B1 1.94879e-05
7 *494:A *141:12 6.75953e-05
8 *494:A *175:67 9.35114e-06
9 *476:A2 *494:A 1.98839e-05
10 *504:A1 *494:A 5.93614e-05
11 *116:23 *494:A 1.74352e-05
12 *134:18 *494:A 0.000136682
*RES
1 *491:X *494:A 33.6714 
*END

*D_NET *141 0.00206124
*CONN
*I *504:B1 I *D sky130_fd_sc_hd__a311o_1
*I *494:B I *D sky130_fd_sc_hd__nor3_1
*I *492:X O *D sky130_fd_sc_hd__and3b_1
*CAP
1 *504:B1 0.000151638
2 *494:B 0.000211246
3 *492:X 0.000177234
4 *141:12 0.000540117
5 *494:B *494:C 0.000152022
6 *141:12 *494:C 3.98663e-05
7 *141:12 *504:C1 6.55528e-06
8 *141:12 *175:57 2.93922e-05
9 *141:12 *175:67 1.83136e-05
10 *476:A2 *494:B 7.88916e-05
11 *492:B *141:12 5.49489e-05
12 *493:A1 *494:B 0
13 *493:A2 *504:B1 2.59355e-05
14 *494:A *494:B 0.000143625
15 *494:A *504:B1 1.94879e-05
16 *494:A *141:12 6.75953e-05
17 *504:A1 *494:B 1.71144e-05
18 *504:A3 *504:B1 2.84026e-05
19 *107:89 *494:B 5.49544e-05
20 *117:66 *494:B 0.00013833
21 *133:29 *141:12 5.33005e-05
22 *133:40 *141:12 5.22717e-05
*RES
1 *492:X *141:12 17.9429 
2 *141:12 *494:B 18.675 
3 *141:12 *504:B1 21.6236 
*END

*D_NET *142 0.00112077
*CONN
*I *494:C I *D sky130_fd_sc_hd__nor3_1
*I *493:X O *D sky130_fd_sc_hd__a31o_1
*CAP
1 *494:C 0.000223684
2 *493:X 0.000223684
3 *494:C *504:C1 2.84026e-05
4 *476:A2 *494:C 5.33005e-05
5 *493:A2 *494:C 5.33005e-05
6 *494:A *494:C 5.49544e-05
7 *494:B *494:C 0.000152022
8 *504:A3 *494:C 7.67667e-05
9 *107:89 *494:C 9.83442e-05
10 *134:18 *494:C 0.000116447
11 *141:12 *494:C 3.98663e-05
*RES
1 *493:X *494:C 33.1179 
*END

*D_NET *143 0.00167596
*CONN
*I *495:C1 I *D sky130_fd_sc_hd__a211o_1
*I *494:Y O *D sky130_fd_sc_hd__nor3_1
*CAP
1 *495:C1 0.000332622
2 *494:Y 0.000332622
3 *495:C1 *429:D 3.97656e-05
4 *495:C1 *480:B 0
5 *495:C1 *147:26 6.80087e-05
6 *495:C1 *175:10 3.57844e-05
7 *486:B *495:C1 3.51442e-05
8 *493:B1 *495:C1 2.58821e-05
9 *499:A1 *495:C1 6.05161e-06
10 *499:B1 *495:C1 0.000161878
11 *107:89 *495:C1 0.000224315
12 *117:66 *495:C1 5.49489e-05
13 *132:12 *495:C1 0.000210742
14 *134:18 *495:C1 0.000148196
*RES
1 *494:Y *495:C1 37.1893 
*END

*D_NET *144 0.00347608
*CONN
*I *509:B1 I *D sky130_fd_sc_hd__a221o_1
*I *498:A I *D sky130_fd_sc_hd__nand2_2
*I *496:X O *D sky130_fd_sc_hd__or2_1
*CAP
1 *509:B1 0.000958833
2 *498:A 0.000120424
3 *496:X 0
4 *144:4 0.00107926
5 *498:A *145:10 0.000114759
6 *498:A *145:24 9.25014e-06
7 *498:A *146:8 7.43578e-06
8 *498:A *157:12 4.25716e-05
9 *498:A *180:39 5.33005e-05
10 *509:B1 *506:A1 5.97186e-05
11 *509:B1 *180:39 0.000142856
12 *509:B1 *180:54 0.000296203
13 *509:B1 *181:94 3.45371e-05
14 *506:B1 *509:B1 0.000286826
15 *507:B *509:B1 9.90431e-05
16 *509:B2 *509:B1 1.69371e-05
17 *509:C1 *509:B1 9.89019e-05
18 *524:A1 *498:A 5.52238e-05
*RES
1 *496:X *144:4 9.3 
2 *144:4 *498:A 21.0143 
3 *144:4 *509:B1 24.1036 
*END

*D_NET *145 0.0081674
*CONN
*I *510:A2 I *D sky130_fd_sc_hd__o22ai_1
*I *498:B I *D sky130_fd_sc_hd__nand2_2
*I *519:A1 I *D sky130_fd_sc_hd__a31o_1
*I *411:C1 I *D sky130_fd_sc_hd__o211a_1
*I *518:A1 I *D sky130_fd_sc_hd__a21oi_1
*I *497:Y O *D sky130_fd_sc_hd__nand2_2
*CAP
1 *510:A2 0.00119668
2 *498:B 0
3 *519:A1 0
4 *411:C1 2.53923e-05
5 *518:A1 0.000274766
6 *497:Y 1.16062e-05
7 *145:28 0.000373315
8 *145:24 0.00111592
9 *145:10 0.0011627
10 *145:8 0.00132821
11 *411:C1 *519:A2 1.83136e-05
12 *411:C1 *148:14 5.28442e-06
13 *510:A2 *152:12 0
14 *510:A2 *164:30 6.30282e-05
15 *518:A1 *411:A2 9.60875e-05
16 *518:A1 *500:A 6.54117e-05
17 *518:A1 *500:B 3.92757e-05
18 *518:A1 *148:14 6.33021e-06
19 *518:A1 *171:14 1.05513e-05
20 *145:8 *157:23 5.52302e-05
21 *145:8 *180:39 5.52302e-05
22 *145:10 *524:A2 0
23 *145:10 *157:12 0
24 *145:24 *403:A1 1.32552e-05
25 *145:24 *403:A2 0.000134736
26 *145:24 *524:A2 0
27 *145:24 *526:C 0
28 *145:24 *146:44 0.000205137
29 *145:24 *157:12 0
30 *145:24 *171:14 6.90679e-05
31 *145:24 *181:68 4.33438e-05
32 *145:28 *171:14 2.16899e-05
33 *403:B1 *145:24 0
34 *403:C1 *145:24 0
35 *411:B1 *518:A1 1.39841e-05
36 *498:A *145:10 0.000114759
37 *498:A *145:24 9.25014e-06
38 *518:B1 *411:C1 5.49544e-05
39 *518:B1 *518:A1 0.000109475
40 *519:B1 *145:24 0.000143967
41 *520:B2 *510:A2 0.000326463
42 *525:A *145:24 0
43 *59:10 *145:24 0.000737472
44 *91:28 *510:A2 0.00026651
*RES
1 *497:Y *145:8 14.3357 
2 *145:8 *145:10 2.25 
3 *145:10 *145:24 30.1429 
4 *145:24 *145:28 1.22321 
5 *145:28 *518:A1 27.0054 
6 *145:28 *411:C1 14.6125 
7 *145:24 *519:A1 13.8 
8 *145:10 *498:B 13.8 
9 *145:8 *510:A2 30.2464 
*END

*D_NET *146 0.00893883
*CONN
*I *505:A I *D sky130_fd_sc_hd__nand2_1
*I *510:B1 I *D sky130_fd_sc_hd__o22ai_1
*I *411:A1 I *D sky130_fd_sc_hd__o211a_1
*I *500:A I *D sky130_fd_sc_hd__or2_1
*I *501:A I *D sky130_fd_sc_hd__nand2_1
*I *403:A1 I *D sky130_fd_sc_hd__a311o_1
*I *506:A1 I *D sky130_fd_sc_hd__o21a_1
*I *498:Y O *D sky130_fd_sc_hd__nand2_2
*CAP
1 *505:A 0
2 *510:B1 0.00075471
3 *411:A1 0
4 *500:A 0.000415285
5 *501:A 1.99857e-05
6 *403:A1 0.000187709
7 *506:A1 0.00015093
8 *498:Y 0.00019561
9 *146:57 0.000560776
10 *146:53 0.000930086
11 *146:44 0.000555685
12 *146:31 0.000891749
13 *146:25 0.00025992
14 *146:8 0.000408235
15 *403:A1 *403:A2 0.000149207
16 *500:A *500:B 1.14671e-05
17 *500:A *147:37 9.11365e-06
18 *500:A *148:14 5.88062e-05
19 *501:A *502:A2 1.04232e-05
20 *506:A1 *524:A2 0
21 *506:A1 *180:54 9.90367e-05
22 *510:B1 *489:A1_N 1.18451e-05
23 *510:B1 *511:A1 0
24 *510:B1 *147:37 9.41642e-05
25 *510:B1 *179:22 0
26 *146:31 *403:A2 0.00018568
27 *146:44 *403:A2 9.90367e-05
28 *146:44 *502:A2 3.18676e-05
29 *146:44 *512:B1 5.65955e-05
30 *146:53 *502:A2 2.14658e-05
31 *146:57 *502:A1 4.16936e-05
32 *146:57 *147:26 2.21972e-05
33 *146:57 *147:37 1.00375e-05
34 *146:57 *148:14 2.86836e-05
35 *146:57 *181:68 0
36 *411:B1 *510:B1 0.000135841
37 *414:A1_N *510:B1 0
38 *498:A *146:8 7.43578e-06
39 *507:A *146:8 3.39084e-05
40 *507:B *506:A1 9.91086e-05
41 *507:B *146:31 4.1331e-06
42 *509:B1 *506:A1 5.97186e-05
43 *510:A1 *510:B1 1.5424e-05
44 *511:C1 *510:B1 0.000135028
45 *518:A1 *500:A 6.54117e-05
46 *518:B1 *500:A 9.54798e-06
47 *519:B1 *146:44 1.83136e-05
48 *520:B1 *146:25 5.06983e-05
49 *520:B1 *146:31 3.5707e-05
50 *521:B1 *510:B1 0.000419303
51 *521:B2 *510:B1 5.33882e-05
52 *524:A1 *146:8 8.18783e-05
53 *524:C1 *146:31 0
54 *525:A *146:8 2.89016e-05
55 *527:B *146:8 0.000399835
56 *32:6 *146:8 7.49387e-06
57 *32:6 *146:25 0.00018372
58 *32:10 *146:8 2.15245e-05
59 *43:19 *146:31 7.32122e-05
60 *59:10 *146:44 5.74499e-06
61 *83:20 *146:57 9.86586e-05
62 *96:48 *510:B1 9.60875e-05
63 *96:65 *510:B1 8.46829e-05
64 *105:34 *510:B1 9.41642e-05
65 *108:24 *510:B1 8.50273e-05
66 *108:24 *146:44 4.45363e-05
67 *145:24 *403:A1 1.32552e-05
68 *145:24 *146:44 0.000205137
*RES
1 *498:Y *146:8 14.9786 
2 *146:8 *506:A1 21.1929 
3 *146:8 *146:25 2.19643 
4 *146:25 *146:31 13.6786 
5 *146:31 *403:A1 12.3357 
6 *146:31 *146:44 9.16071 
7 *146:44 *501:A 9.72857 
8 *146:44 *146:53 0.535714 
9 *146:53 *146:57 7.66071 
10 *146:57 *500:A 22.8767 
11 *146:57 *411:A1 13.8 
12 *146:53 *510:B1 33.6393 
13 *146:25 *505:A 9.3 
*END

*D_NET *147 0.00786745
*CONN
*I *411:A2 I *D sky130_fd_sc_hd__o211a_1
*I *500:B I *D sky130_fd_sc_hd__or2_1
*I *501:B I *D sky130_fd_sc_hd__nand2_1
*I *499:Y O *D sky130_fd_sc_hd__a21oi_1
*CAP
1 *411:A2 9.00915e-05
2 *500:B 0.000266729
3 *501:B 0
4 *499:Y 0.00281534
5 *147:37 0.00050702
6 *147:26 0.00296554
7 *500:B *557:A 5.07633e-05
8 *500:B *558:A 3.16801e-05
9 *500:B *148:14 0
10 *147:26 *429:D 0.000110632
11 *147:26 *556:A 4.73656e-05
12 *147:37 *557:A 9.69119e-06
13 *147:37 *170:10 6.6549e-05
14 *411:B1 *411:A2 5.95604e-05
15 *486:B *147:26 1.00375e-05
16 *495:C1 *147:26 6.80087e-05
17 *500:A *500:B 1.14671e-05
18 *500:A *147:37 9.11365e-06
19 *510:B1 *147:37 9.41642e-05
20 *518:A1 *411:A2 9.60875e-05
21 *518:A1 *500:B 3.92757e-05
22 *518:B1 *500:B 0
23 *39:35 *147:26 2.41653e-05
24 *83:20 *411:A2 5.922e-05
25 *83:20 *147:26 0.000159442
26 *83:20 *147:37 0.000194479
27 *108:24 *147:37 4.87854e-05
28 *146:57 *147:26 2.21972e-05
29 *146:57 *147:37 1.00375e-05
*RES
1 *499:Y *147:26 38.968 
2 *147:26 *501:B 9.3 
3 *147:26 *147:37 8.60714 
4 *147:37 *500:B 18.05 
5 *147:37 *411:A2 15.9964 
*END

*D_NET *148 0.00213255
*CONN
*I *518:A2 I *D sky130_fd_sc_hd__a21oi_1
*I *502:A1 I *D sky130_fd_sc_hd__a21o_1
*I *519:A2 I *D sky130_fd_sc_hd__a31o_1
*I *500:X O *D sky130_fd_sc_hd__or2_1
*CAP
1 *518:A2 0.000148531
2 *502:A1 0.000119183
3 *519:A2 0.000207027
4 *500:X 0.000131022
5 *148:14 0.000474304
6 *148:6 0.000427648
7 *502:A1 *181:68 0
8 *518:A2 *431:A 9.90431e-05
9 *518:A2 *171:14 2.27189e-05
10 *519:A2 *171:14 6.05161e-06
11 *148:6 *171:14 4.7812e-05
12 *411:C1 *519:A2 1.83136e-05
13 *411:C1 *148:14 5.28442e-06
14 *500:A *148:14 5.88062e-05
15 *500:B *148:14 0
16 *518:A1 *148:14 6.33021e-06
17 *518:B1 *518:A2 4.38128e-05
18 *518:B1 *519:A2 5.5988e-05
19 *518:B1 *148:6 5.52302e-05
20 *518:B1 *148:14 9.76123e-05
21 *519:B1 *502:A1 2.31833e-05
22 *519:B1 *148:14 1.42712e-05
23 *146:57 *502:A1 4.16936e-05
24 *146:57 *148:14 2.86836e-05
*RES
1 *500:X *148:6 11.0679 
2 *148:6 *148:14 7.71429 
3 *148:14 *519:A2 16.8357 
4 *148:14 *502:A1 15.7464 
5 *148:6 *518:A2 11.925 
*END

*D_NET *149 0.000244178
*CONN
*I *502:A2 I *D sky130_fd_sc_hd__a21o_1
*I *501:Y O *D sky130_fd_sc_hd__nand2_1
*CAP
1 *502:A2 3.48377e-05
2 *501:Y 3.48377e-05
3 *501:A *502:A2 1.04232e-05
4 *502:B1 *502:A2 1.17091e-05
5 *108:24 *502:A2 9.90367e-05
6 *146:44 *502:A2 3.18676e-05
7 *146:53 *502:A2 2.14658e-05
*RES
1 *501:Y *502:A2 19.975 
*END

*D_NET *150 0.000537748
*CONN
*I *512:B1 I *D sky130_fd_sc_hd__o31a_1
*I *502:X O *D sky130_fd_sc_hd__a21o_1
*CAP
1 *512:B1 0.000136906
2 *502:X 0.000136906
3 *512:B1 *181:68 0.000124529
4 *512:A1 *512:B1 5.49544e-05
5 *527:A *512:B1 2.78576e-05
6 *83:20 *512:B1 0
7 *146:44 *512:B1 5.65955e-05
*RES
1 *502:X *512:B1 30.3143 
*END

*D_NET *151 0.00290583
*CONN
*I *504:C1 I *D sky130_fd_sc_hd__a311o_1
*I *503:X O *D sky130_fd_sc_hd__and2b_1
*CAP
1 *504:C1 0.000867537
2 *503:X 0.000867537
3 *504:C1 *175:8 0
4 *504:C1 *175:57 0.0001839
5 *493:A1 *504:C1 2.67064e-05
6 *493:A2 *504:C1 3.77147e-05
7 *493:B1 *504:C1 0
8 *494:C *504:C1 2.84026e-05
9 *504:A3 *504:C1 0.000192147
10 *133:23 *504:C1 0.000534222
11 *133:29 *504:C1 3.98559e-05
12 *133:40 *504:C1 0.000121248
13 *141:12 *504:C1 6.55528e-06
*RES
1 *503:X *504:C1 41.0821 
*END

*D_NET *152 0.0059996
*CONN
*I *505:B I *D sky130_fd_sc_hd__nand2_1
*I *403:A2 I *D sky130_fd_sc_hd__a311o_1
*I *506:A2 I *D sky130_fd_sc_hd__o21a_1
*I *504:X O *D sky130_fd_sc_hd__a311o_1
*CAP
1 *505:B 0
2 *403:A2 0.000287449
3 *506:A2 0
4 *504:X 0.00112438
5 *152:23 0.000698809
6 *152:12 0.00153574
7 *152:12 *449:A 4.66203e-05
8 *152:12 *175:67 0
9 *152:23 *180:54 0.000175493
10 result[0] *152:12 6.57026e-05
11 *403:A1 *403:A2 0.000149207
12 *463:A *152:12 0
13 *464:A1 *152:12 0
14 *464:B2 *152:12 0
15 *468:B1 *152:12 7.83659e-05
16 *478:A2 *152:12 6.19551e-05
17 *478:A3 *152:12 6.09572e-05
18 *479:A1 *152:12 0
19 *491:C1 *152:12 0.000136951
20 *506:B1 *152:23 0
21 *507:B *152:23 0
22 *510:A2 *152:12 0
23 *520:A2_N *403:A2 0
24 *520:A2_N *152:23 0
25 *520:B2 *152:23 0
26 *528:C1 *403:A2 0.00012401
27 *41:21 *403:A2 0
28 *43:10 *403:A2 0
29 *43:19 *403:A2 0
30 *115:12 *152:12 3.93986e-05
31 *118:14 *152:12 0.000465748
32 *121:34 *152:12 0.00052935
33 *145:24 *403:A2 0.000134736
34 *146:31 *403:A2 0.00018568
35 *146:44 *403:A2 9.90367e-05
*RES
1 *504:X *152:12 42.6036 
2 *152:12 *506:A2 9.3 
3 *152:12 *152:23 10.6607 
4 *152:23 *403:A2 21.925 
5 *152:23 *505:B 13.8 
*END

*D_NET *153 0.0060384
*CONN
*I *442:A1 I *D sky130_fd_sc_hd__a221oi_1
*I *443:A1 I *D sky130_fd_sc_hd__o22a_1
*I *439:A I *D sky130_fd_sc_hd__nand2_1
*I *451:A_N I *D sky130_fd_sc_hd__nand2b_1
*I *446:B2 I *D sky130_fd_sc_hd__o22ai_1
*I *461:B2 I *D sky130_fd_sc_hd__a2bb2o_1
*I *533:X O *D sky130_fd_sc_hd__dlymetal6s2s_1
*CAP
1 *442:A1 4.60367e-05
2 *443:A1 0
3 *439:A 1.69531e-05
4 *451:A_N 0
5 *446:B2 0
6 *461:B2 0.000384534
7 *533:X 5.11894e-05
8 *153:44 1.69531e-05
9 *153:24 0.000605797
10 *153:18 0.0010095
11 *153:8 0.000893321
12 *153:6 0.000202307
13 *439:A *451:B 5.33005e-05
14 *442:A1 *442:A2 0.000150625
15 *153:6 *184:12 2.95726e-05
16 *153:8 *184:12 1.92905e-05
17 *153:8 *184:18 7.94671e-05
18 *153:18 *447:C 0.000181796
19 *153:18 *451:B 0.000137983
20 *153:18 *179:22 0
21 *153:18 *184:18 5.71472e-05
22 *153:18 *184:24 0.000376371
23 *446:A2 *461:B2 0.000166416
24 *448:B1 *461:B2 7.43578e-06
25 *448:B1 *153:24 3.18676e-05
26 *448:C1 *439:A 5.33005e-05
27 *462:A2 *461:B2 2.16315e-05
28 *471:A2 *461:B2 0
29 *91:12 *461:B2 9.60939e-05
30 *91:12 *153:24 0.000303747
31 *92:16 *442:A1 0.000150625
32 *97:46 *461:B2 8.41617e-05
33 *99:53 *153:24 0
34 *102:14 *461:B2 0.000472017
35 *105:57 *461:B2 8.85068e-05
36 *108:14 *153:18 5.41794e-05
37 *108:14 *153:24 0.000196269
*RES
1 *533:X *153:6 10.2464 
2 *153:6 *153:8 2.17857 
3 *153:8 *153:18 16.0714 
4 *153:18 *153:24 10.0536 
5 *153:24 *461:B2 27.6571 
6 *153:24 *446:B2 9.3 
7 *153:18 *153:44 4.5 
8 *153:44 *451:A_N 9.3 
9 *153:44 *439:A 9.83571 
10 *153:8 *443:A1 9.3 
11 *153:6 *442:A1 20.2464 
*END

*D_NET *154 0.0028889
*CONN
*I *458:A2 I *D sky130_fd_sc_hd__o21a_1
*I *449:B I *D sky130_fd_sc_hd__nand2_1
*I *450:B I *D sky130_fd_sc_hd__xnor2_2
*I *470:A_N I *D sky130_fd_sc_hd__and2b_1
*I *534:X O *D sky130_fd_sc_hd__dlymetal6s2s_1
*CAP
1 *458:A2 0.000107037
2 *449:B 0
3 *450:B 0
4 *470:A_N 9.00771e-05
5 *534:X 0
6 *154:40 0.00046791
7 *154:23 0.000656124
8 *154:4 0.000385328
9 *470:A_N *470:B 0.000174663
10 *154:23 *470:B 0
11 *154:40 *449:A 9.41642e-05
12 *458:B1 *458:A2 5.20751e-05
13 *459:B1 *458:A2 0.000149764
14 *459:B1 *154:40 5.71472e-05
15 *463:A *154:23 0
16 *468:B1 *154:40 9.60939e-05
17 *534:A *470:A_N 4.1331e-06
18 *101:8 *458:A2 0
19 *101:8 *154:40 2.55587e-05
20 *101:39 *458:A2 0.000491634
21 *101:39 *154:40 3.71931e-05
*RES
1 *534:X *154:4 9.3 
2 *154:4 *470:A_N 20.55 
3 *154:4 *154:23 13.7321 
4 *154:23 *450:B 9.3 
5 *154:23 *154:40 6.48214 
6 *154:40 *449:B 9.3 
7 *154:40 *458:A2 14.3714 
*END

*D_NET *155 0.00172813
*CONN
*I *491:A2 I *D sky130_fd_sc_hd__o211a_1
*I *492:A_N I *D sky130_fd_sc_hd__and3b_1
*I *466:B I *D sky130_fd_sc_hd__nand2_1
*I *465:B I *D sky130_fd_sc_hd__or2_1
*I *535:X O *D sky130_fd_sc_hd__buf_1
*CAP
1 *491:A2 0
2 *492:A_N 0.000119611
3 *466:B 0
4 *465:B 0.000102841
5 *535:X 0.000116687
6 *155:34 0.000119611
7 *155:18 0.000268837
8 *155:12 0.000282683
9 *465:B *465:A 0.00010096
10 *465:B *175:67 4.38128e-05
11 *492:A_N *175:67 6.85372e-05
12 *155:12 *175:67 9.81113e-06
13 *491:A1 *492:A_N 9.99853e-05
14 *491:A1 *155:12 5.85762e-05
15 *491:A1 *155:18 3.4846e-06
16 *491:B1 *155:18 0.000220441
17 *494:A *492:A_N 2.98372e-05
18 *504:A3 *465:B 1.3701e-05
19 *121:34 *465:B 1.54142e-05
20 *121:34 *155:18 5.33005e-05
*RES
1 *535:X *155:12 16.1036 
2 *155:12 *155:18 7.89286 
3 *155:18 *465:B 11.4964 
4 *155:18 *466:B 9.3 
5 *155:12 *155:34 4.5 
6 *155:34 *492:A_N 11.9071 
7 *155:34 *491:A2 9.3 
*END

*D_NET *156 0.00167247
*CONN
*I *484:B I *D sky130_fd_sc_hd__xnor2_2
*I *503:A_N I *D sky130_fd_sc_hd__and2b_1
*I *481:B I *D sky130_fd_sc_hd__nand2_1
*I *482:B I *D sky130_fd_sc_hd__nor2_1
*I *480:B I *D sky130_fd_sc_hd__and2_1
*I *536:X O *D sky130_fd_sc_hd__dlymetal6s2s_1
*CAP
1 *484:B 0
2 *503:A_N 3.21227e-05
3 *481:B 0
4 *482:B 7.37265e-05
5 *480:B 0.000125625
6 *536:X 0.000150442
7 *156:39 3.21227e-05
8 *156:14 0.000205059
9 *156:12 0.000144708
10 *156:8 0.000289443
11 *480:B *481:A 3.99614e-06
12 *480:B *482:A 4.88637e-05
13 *480:B *179:57 5.62995e-05
14 *480:B *179:64 2.44318e-05
15 *482:B *482:A 3.76337e-05
16 *503:A_N *484:A 0.0001399
17 *156:8 *179:8 0
18 *156:12 *179:10 0
19 *156:12 *179:16 0
20 *156:14 *481:A 5.7661e-06
21 *156:14 *482:A 1.04232e-05
22 *483:B *482:B 2.65105e-05
23 *483:B *503:A_N 9.90367e-05
24 *483:B *156:8 2.24646e-05
25 *483:B *156:12 0.00012401
26 *487:A3 *156:12 0
27 *487:B1 *156:12 0
28 *495:C1 *480:B 0
29 *133:23 *503:A_N 1.98839e-05
*RES
1 *536:X *156:8 16.3536 
2 *156:8 *156:12 7.05357 
3 *156:12 *156:14 0.428571 
4 *156:14 *480:B 11.9071 
5 *156:14 *482:B 11.0857 
6 *156:12 *481:B 9.3 
7 *156:8 *156:39 4.5 
8 *156:39 *503:A_N 10.6571 
9 *156:39 *484:B 9.3 
*END

*D_NET *157 0.00218622
*CONN
*I *526:A_N I *D sky130_fd_sc_hd__and3b_1
*I *524:A2 I *D sky130_fd_sc_hd__o211a_1
*I *497:B I *D sky130_fd_sc_hd__nand2_2
*I *496:B I *D sky130_fd_sc_hd__or2_1
*I *537:X O *D sky130_fd_sc_hd__buf_1
*CAP
1 *526:A_N 9.31454e-05
2 *524:A2 0.000214313
3 *497:B 0
4 *496:B 0
5 *537:X 6.2496e-05
6 *157:23 0.000413607
7 *157:12 0.000353619
8 *157:6 0.000309966
9 *524:A2 *180:54 5.52238e-05
10 *526:A_N *526:C 6.62783e-05
11 *157:6 *526:C 1.92905e-05
12 *157:12 *526:C 0.000177948
13 *157:12 *180:10 0.000125724
14 *157:23 *497:A 1.04232e-05
15 *157:23 *180:32 3.71854e-05
16 *157:23 *180:39 9.61455e-05
17 *157:23 *180:54 3.81329e-05
18 *498:A *157:12 4.25716e-05
19 *506:A1 *524:A2 0
20 *507:B *524:A2 0
21 *525:A *524:A2 5.80706e-06
22 *547:A *157:12 9.11806e-06
23 *145:8 *157:23 5.52302e-05
24 *145:10 *524:A2 0
25 *145:10 *157:12 0
26 *145:24 *524:A2 0
27 *145:24 *157:12 0
*RES
1 *537:X *157:6 10.2464 
2 *157:6 *157:12 13.0714 
3 *157:12 *496:B 9.3 
4 *157:12 *157:23 4.57143 
5 *157:23 *497:B 9.3 
6 *157:23 *524:A2 21.0857 
7 *157:6 *526:A_N 11.0679 
*END

*D_NET *158 0.00210381
*CONN
*I *514:B I *D sky130_fd_sc_hd__nor2_1
*I *515:B I *D sky130_fd_sc_hd__or2_1
*I *513:B I *D sky130_fd_sc_hd__nand2_1
*I *401:A_N I *D sky130_fd_sc_hd__nand2b_1
*I *538:X O *D sky130_fd_sc_hd__buf_1
*CAP
1 *514:B 0
2 *515:B 0
3 *513:B 8.39427e-05
4 *401:A_N 0
5 *538:X 0.000340393
6 *158:29 0.000183801
7 *158:20 0.000115317
8 *158:18 0.000355852
9 *513:B *513:A 7.90616e-05
10 *513:B *181:39 0.00010096
11 *158:18 *181:14 8.13512e-05
12 *158:18 *181:37 2.84026e-05
13 *158:20 *181:37 2.23592e-05
14 *158:29 *513:A 0
15 *158:29 *514:A 1.17091e-05
16 *158:29 *181:37 6.61814e-05
17 *158:29 *181:39 0.000172039
18 *402:A *513:B 0.000314139
19 *402:A *158:29 5.71472e-05
20 *528:A1 *158:18 4.87014e-05
21 *528:A1 *158:20 2.84109e-05
22 *548:A *158:18 1.40415e-05
*RES
1 *538:X *158:18 23.6214 
2 *158:18 *158:20 0.535714 
3 *158:20 *401:A_N 9.3 
4 *158:20 *158:29 2.60714 
5 *158:29 *513:B 12.7286 
6 *158:29 *515:B 9.3 
7 *158:18 *514:B 9.3 
*END

*D_NET *159 0.00112838
*CONN
*I *529:B I *D sky130_fd_sc_hd__or2_1
*I *420:A_N I *D sky130_fd_sc_hd__and2b_1
*I *399:B I *D sky130_fd_sc_hd__nand2_1
*I *539:X O *D sky130_fd_sc_hd__clkbuf_1
*CAP
1 *529:B 0.000177735
2 *420:A_N 0
3 *399:B 1.88583e-05
4 *539:X 0.000165331
5 *159:12 1.88583e-05
6 *159:10 0.000343067
7 *399:B *420:B 5.42333e-06
8 *399:B *431:C 3.15514e-05
9 *399:B *182:16 5.39972e-05
10 *529:B *431:C 5.41794e-05
11 *529:B *182:16 0.000153273
12 *529:B *182:20 3.01979e-05
13 *529:B *182:30 0
14 *159:10 *431:C 5.66157e-05
15 *539:A *159:10 1.92905e-05
*RES
1 *539:X *159:10 16.2821 
2 *159:10 *159:12 4.5 
3 *159:12 *399:B 10.0054 
4 *159:12 *420:A_N 9.3 
5 *159:10 *529:B 16.7286 
*END

*D_NET *160 0.00182258
*CONN
*I *432:A_N I *D sky130_fd_sc_hd__nand2b_1
*I *416:B I *D sky130_fd_sc_hd__nand2_1
*I *415:B I *D sky130_fd_sc_hd__or2_1
*I *540:X O *D sky130_fd_sc_hd__clkbuf_1
*CAP
1 *432:A_N 1.54296e-05
2 *416:B 6.23865e-05
3 *415:B 0.000132742
4 *540:X 3.62555e-05
5 *160:21 0.00019109
6 *160:8 0.000282272
7 *415:B *183:12 1.00375e-05
8 *416:B *416:A 1.97695e-05
9 *416:B *183:29 0.000194352
10 *160:21 *432:B 1.28809e-05
11 *160:21 *183:29 5.52238e-05
12 *417:B *416:B 4.22908e-05
13 *417:B *432:A_N 3.99614e-06
14 *424:B *416:B 7.43578e-06
15 *434:A2 *415:B 2.94387e-05
16 *434:A3 *415:B 0.000175519
17 *434:A3 *160:21 3.69047e-06
18 *434:B1 *415:B 4.66203e-05
19 *540:A *415:B 6.71116e-05
20 *540:A *160:8 5.33978e-05
21 *72:14 *416:B 1.15281e-05
22 *92:16 *415:B 0.000275094
23 *92:16 *160:8 9.40167e-05
*RES
1 *540:X *160:8 15.1393 
2 *160:8 *415:B 18.7821 
3 *160:8 *160:21 6.26786 
4 *160:21 *416:B 11.4964 
5 *160:21 *432:A_N 9.72857 
*END

*D_NET *161 0.00269259
*CONN
*I *532:A I *D sky130_fd_sc_hd__buf_2
*I *456:C I *D sky130_fd_sc_hd__nor3_4
*I *541:X O *D sky130_fd_sc_hd__buf_1
*CAP
1 *532:A 0.000139175
2 *456:C 0
3 *541:X 0.000330108
4 *161:10 0.000469283
5 *532:A *456:B 0.000200916
6 *532:A *162:8 0.000124655
7 *532:A *177:10 7.444e-06
8 *532:A *178:8 0.000176274
9 *161:10 *441:B 4.86324e-05
10 *161:10 *442:B1 1.40034e-05
11 *161:10 *442:B2 0.000155391
12 *161:10 *442:C1 9.60939e-05
13 *161:10 *454:B 0.00010096
14 *161:10 *177:10 7.31026e-05
15 *161:10 *177:37 0.000178847
16 *161:10 *178:8 8.72055e-05
17 *443:B2 *161:10 0.000266473
18 *542:A *532:A 2.00751e-05
19 *92:8 *161:10 8.07951e-05
20 *92:16 *161:10 0.00012316
*RES
1 *541:X *161:10 23.2286 
2 *161:10 *456:C 13.8 
3 *161:10 *532:A 18.7821 
*END

*D_NET *162 0.000807061
*CONN
*I *531:A I *D sky130_fd_sc_hd__clkbuf_2
*I *456:B I *D sky130_fd_sc_hd__nor3_4
*I *542:X O *D sky130_fd_sc_hd__buf_1
*CAP
1 *531:A 0
2 *456:B 7.90805e-05
3 *542:X 5.03711e-05
4 *162:8 0.000129452
5 *456:B *177:10 0.000128146
6 *532:A *456:B 0.000200916
7 *532:A *162:8 0.000124655
8 *542:A *456:B 3.69863e-05
9 *542:A *162:8 5.74533e-05
*RES
1 *542:X *162:8 15.4429 
2 *162:8 *456:B 16.3536 
3 *162:8 *531:A 13.8 
*END

*D_NET *163 0.00211974
*CONN
*I *530:A I *D sky130_fd_sc_hd__buf_2
*I *456:A I *D sky130_fd_sc_hd__nor3_4
*I *454:C_N I *D sky130_fd_sc_hd__or3b_2
*I *543:X O *D sky130_fd_sc_hd__buf_1
*CAP
1 *530:A 1.1624e-05
2 *456:A 3.04135e-05
3 *454:C_N 0.000146625
4 *543:X 0.000129189
5 *163:12 0.00029137
6 *163:10 0.000255145
7 *454:C_N *454:B 8.65019e-05
8 *454:C_N *176:10 0.000117903
9 *454:C_N *176:14 0.000261385
10 *454:C_N *177:37 7.6644e-05
11 *454:C_N *178:94 0.000198705
12 *456:A *176:75 5.33005e-05
13 *530:A *177:66 5.52238e-05
14 *163:12 *176:8 0.00011891
15 *163:12 *176:10 3.17148e-05
16 *163:12 *178:94 4.49293e-05
17 *438:B *163:12 0
18 *542:A *163:10 5.41797e-06
19 *542:A *163:12 3.67356e-05
20 *543:A *163:10 0.000112777
21 *107:79 *530:A 5.52238e-05
*RES
1 *543:X *163:10 15.9786 
2 *163:10 *163:12 2.85714 
3 *163:12 *454:C_N 18.7821 
4 *163:12 *456:A 14.3357 
5 *163:10 *530:A 14.3357 
*END

*D_NET *164 0.00786015
*CONN
*I *448:A1 I *D sky130_fd_sc_hd__a211o_1
*I *474:B2 I *D sky130_fd_sc_hd__a22o_1
*I *459:A1 I *D sky130_fd_sc_hd__o22a_1
*I *458:A1 I *D sky130_fd_sc_hd__o21a_1
*I *449:A I *D sky130_fd_sc_hd__nand2_1
*I *470:B I *D sky130_fd_sc_hd__and2b_1
*I *450:A I *D sky130_fd_sc_hd__xnor2_2
*I *544:X O *D sky130_fd_sc_hd__clkbuf_2
*CAP
1 *448:A1 7.42176e-05
2 *474:B2 7.07866e-05
3 *459:A1 3.32926e-05
4 *458:A1 0.000126519
5 *449:A 0.000110839
6 *470:B 0.000367219
7 *450:A 0
8 *544:X 0
9 *164:79 0.000222251
10 *164:68 0.00070347
11 *164:45 0.00103001
12 *164:30 0.000715612
13 *164:8 0.000477548
14 *164:4 0.000404544
15 *448:A1 *166:16 1.21258e-05
16 *164:68 *166:16 2.42516e-05
17 *164:79 *166:16 4.16984e-05
18 *448:A2 *448:A1 9.60939e-05
19 *448:C1 *448:A1 1.3701e-05
20 *459:B1 *164:68 0.000241198
21 *459:B2 *459:A1 8.62591e-05
22 *459:B2 *164:68 2.12087e-05
23 *459:B2 *164:79 3.36817e-05
24 *461:B1 *459:A1 0
25 *461:B1 *164:68 0.000135028
26 *463:A *449:A 5.80706e-06
27 *463:A *470:B 0
28 *468:B1 *449:A 5.41794e-05
29 *470:A_N *470:B 0.000174663
30 *471:A1 *470:B 0
31 *506:B1 *458:A1 4.94455e-05
32 *510:A2 *164:30 6.30282e-05
33 *534:A *470:B 0
34 *83:20 *164:68 3.25078e-05
35 *91:28 *449:A 7.83366e-05
36 *91:28 *164:8 0
37 *91:28 *164:30 9.90431e-05
38 *91:28 *164:45 0.000693998
39 *91:28 *164:68 0.000363801
40 *99:16 *474:B2 3.34366e-05
41 *99:35 *474:B2 0.000164554
42 *101:39 *449:A 4.58194e-05
43 *102:14 *448:A1 0.000167436
44 *102:14 *164:79 5.52302e-05
45 *105:57 *164:68 0.000308592
46 *106:20 *474:B2 5.80706e-06
47 *106:26 *474:B2 0.000103285
48 *106:26 *164:68 1.24368e-05
49 *106:26 *164:79 0.00016641
50 *152:12 *449:A 4.66203e-05
51 *154:23 *470:B 0
52 *154:40 *449:A 9.41642e-05
*RES
1 *544:X *164:4 9.3 
2 *164:4 *164:8 6.44643 
3 *164:8 *450:A 13.8 
4 *164:8 *470:B 20.8714 
5 *164:4 *164:30 5.05357 
6 *164:30 *449:A 21.1929 
7 *164:30 *164:45 6.69643 
8 *164:45 *458:A1 20.2464 
9 *164:45 *164:68 20.3214 
10 *164:68 *459:A1 10.4696 
11 *164:68 *164:79 2.58929 
12 *164:79 *474:B2 20.8536 
13 *164:79 *448:A1 11.4964 
*END

*D_NET *165 0.000403511
*CONN
*I *552:A I *D sky130_fd_sc_hd__buf_2
*I *434:X O *D sky130_fd_sc_hd__a32o_1
*CAP
1 *552:A 0.000113883
2 *434:X 0.000113883
3 carry *552:A 2.26973e-05
4 *540:A *552:A 0.000153047
5 *107:14 *552:A 0
*RES
1 *434:X *552:A 30.0821 
*END

*D_NET *166 0.00330974
*CONN
*I *429:A I *D sky130_fd_sc_hd__or4_1
*I *553:A I *D sky130_fd_sc_hd__buf_2
*I *448:X O *D sky130_fd_sc_hd__a211o_1
*CAP
1 *429:A 0
2 *553:A 0.000294791
3 *448:X 0.000592495
4 *166:16 0.000887285
5 *553:A *429:B 1.83136e-05
6 *553:A *429:C 5.65955e-05
7 *553:A *429:D 2.36643e-05
8 *166:16 *429:C 2.12005e-05
9 *166:16 *429:D 9.34335e-05
10 *166:16 *460:A1 5.52302e-05
11 *448:A1 *166:16 1.21258e-05
12 *448:A2 *166:16 6.05161e-06
13 *459:B2 *166:16 0.000181381
14 *460:A2 *166:16 4.38168e-05
15 *460:B1_N *166:16 0.000131659
16 *462:C1 *166:16 9.77118e-05
17 *471:A2 *553:A 0.000573538
18 *471:A2 *166:16 9.58126e-05
19 *83:20 *166:16 4.78056e-05
20 *105:71 *166:16 1.08847e-05
21 *164:68 *166:16 2.42516e-05
22 *164:79 *166:16 4.16984e-05
*RES
1 *448:X *166:16 28.5321 
2 *166:16 *553:A 25.2464 
3 *166:16 *429:A 9.3 
*END

*D_NET *167 0.00260716
*CONN
*I *554:A I *D sky130_fd_sc_hd__buf_2
*I *429:B I *D sky130_fd_sc_hd__or4_1
*I *464:X O *D sky130_fd_sc_hd__o32a_1
*CAP
1 *554:A 0.000596254
2 *429:B 7.55602e-05
3 *464:X 0.000226104
4 *167:10 0.000897919
5 *429:B *429:D 1.32056e-05
6 *554:A *429:C 0
7 *464:A2 *167:10 0.000141554
8 *471:A2 *429:B 2.94709e-06
9 *473:B *554:A 0.000142856
10 *478:A1 *554:A 0.000148105
11 *478:A3 *554:A 5.23142e-05
12 *553:A *429:B 1.83136e-05
13 *92:54 *554:A 2.59355e-05
14 *92:75 *554:A 6.81083e-05
15 *92:75 *167:10 0.000197984
*RES
1 *464:X *167:10 17.7107 
2 *167:10 *429:B 14.7464 
3 *167:10 *554:A 25.0321 
*END

*D_NET *168 0.00497173
*CONN
*I *429:C I *D sky130_fd_sc_hd__or4_1
*I *555:A I *D sky130_fd_sc_hd__buf_2
*I *479:X O *D sky130_fd_sc_hd__o22a_1
*CAP
1 *429:C 0.00128494
2 *555:A 0.000147661
3 *479:X 0.000173727
4 *168:6 0.00160632
5 *429:C *429:D 9.83388e-05
6 result[2] *555:A 0
7 *469:A *429:C 8.70195e-05
8 *469:A *168:6 0.000229456
9 *476:A2 *429:C 2.8266e-06
10 *477:A1 *429:C 0.000362268
11 *479:A2 *429:C 0.000269422
12 *479:B1 *429:C 0.000631955
13 *553:A *429:C 5.65955e-05
14 *554:A *429:C 0
15 *107:89 *429:C 0
16 *121:8 *555:A 0
17 *121:19 *555:A 0
18 *166:16 *429:C 2.12005e-05
*RES
1 *479:X *168:6 11.8893 
2 *168:6 *555:A 20.4786 
3 *168:6 *429:C 39.3357 
*END

*D_NET *169 0.00383508
*CONN
*I *556:A I *D sky130_fd_sc_hd__buf_2
*I *429:D I *D sky130_fd_sc_hd__or4_1
*I *495:X O *D sky130_fd_sc_hd__a211o_1
*CAP
1 *556:A 0.000265393
2 *429:D 0.000693931
3 *495:X 0
4 *169:6 0.000959324
5 *429:D *175:10 0
6 *429:D *179:16 0
7 *556:A *175:8 0
8 *556:A *175:10 0
9 *556:A *179:8 0
10 *429:B *429:D 1.32056e-05
11 *429:C *429:D 9.83388e-05
12 *460:A2 *429:D 0.000351363
13 *471:A2 *429:D 1.13883e-05
14 *475:A2 *429:D 0.000122941
15 *477:B1 *429:D 9.28524e-05
16 *483:A *556:A 0
17 *486:B *556:A 0
18 *490:C *429:D 0
19 *495:A1 *429:D 4.75428e-05
20 *495:A2 *429:D 5.80706e-06
21 *495:A2 *556:A 7.50601e-05
22 *495:C1 *429:D 3.97656e-05
23 *546:A *556:A 0
24 *553:A *429:D 2.36643e-05
25 *83:20 *429:D 0.00043709
26 *96:29 *429:D 0.000332644
27 *99:35 *429:D 1.33343e-05
28 *147:26 *429:D 0.000110632
29 *147:26 *556:A 4.73656e-05
30 *166:16 *429:D 9.34335e-05
*RES
1 *495:X *169:6 13.8 
2 *169:6 *429:D 31.2821 
3 *169:6 *556:A 18.7821 
*END

*D_NET *170 0.00261144
*CONN
*I *430:A I *D sky130_fd_sc_hd__or2_1
*I *557:A I *D sky130_fd_sc_hd__buf_2
*I *512:X O *D sky130_fd_sc_hd__o31a_1
*CAP
1 *430:A 0
2 *557:A 0.000334662
3 *512:X 0.000414536
4 *170:10 0.000749199
5 *557:A *558:A 0
6 *557:A *559:A 0.000222885
7 result[4] *557:A 2.89016e-05
8 result[6] *557:A 3.18676e-05
9 *411:B1 *170:10 0.000288564
10 *412:A *557:A 0
11 *412:A *170:10 0
12 *431:D *557:A 5.56943e-05
13 *500:B *557:A 5.07633e-05
14 *527:A *170:10 0.000358126
15 *83:20 *170:10 0
16 *147:37 *557:A 9.69119e-06
17 *147:37 *170:10 6.6549e-05
*RES
1 *512:X *170:10 21.5857 
2 *170:10 *557:A 21.3714 
3 *170:10 *430:A 13.8 
*END

*D_NET *171 0.00290143
*CONN
*I *431:A I *D sky130_fd_sc_hd__nor4_1
*I *558:A I *D sky130_fd_sc_hd__buf_2
*I *528:Y O *D sky130_fd_sc_hd__o211ai_1
*CAP
1 *431:A 0.000118982
2 *558:A 0.000187331
3 *528:Y 0.000400118
4 *171:14 0.000706431
5 *431:A *559:A 9.90431e-05
6 *558:A *181:14 0
7 *171:14 *181:14 5.83233e-05
8 *171:14 *181:68 0.000221163
9 *500:B *558:A 3.16801e-05
10 *518:A1 *171:14 1.05513e-05
11 *518:A2 *431:A 9.90431e-05
12 *518:A2 *171:14 2.27189e-05
13 *518:B1 *171:14 6.4059e-05
14 *519:A2 *171:14 6.05161e-06
15 *528:A1 *171:14 0.000315711
16 *528:B1 *171:14 0.000185118
17 *557:A *558:A 0
18 *40:10 *431:A 0.000210801
19 *40:10 *171:14 2.28598e-05
20 *43:51 *171:14 2.87555e-06
21 *145:24 *171:14 6.90679e-05
22 *145:28 *171:14 2.16899e-05
23 *148:6 *171:14 4.7812e-05
*RES
1 *528:Y *171:14 27.7643 
2 *171:14 *558:A 21.5143 
3 *171:14 *431:A 13.1214 
*END

*D_NET *172 0.00168221
*CONN
*I *431:B I *D sky130_fd_sc_hd__nor4_1
*I *559:A I *D sky130_fd_sc_hd__buf_2
*I *414:X O *D sky130_fd_sc_hd__o2bb2a_1
*CAP
1 *431:B 0
2 *559:A 0.000149507
3 *414:X 0.000192774
4 *172:14 0.000342281
5 *413:A *559:A 0
6 *413:A *172:14 2.8266e-06
7 *413:B *559:A 0
8 *413:B *172:14 0.000125731
9 *414:A2_N *172:14 0
10 *418:A1 *172:14 9.60939e-05
11 *418:A3 *172:14 9.90431e-05
12 *431:A *559:A 9.90431e-05
13 *431:D *559:A 0.00010096
14 *431:D *172:14 0.0001399
15 *557:A *559:A 0.000222885
16 *40:10 *559:A 2.54632e-05
17 *40:10 *172:14 8.57023e-05
*RES
1 *414:X *172:14 22.6571 
2 *172:14 *559:A 22.5143 
3 *172:14 *431:B 9.3 
*END

*D_NET *173 0.00463204
*CONN
*I *560:A I *D sky130_fd_sc_hd__buf_2
*I *431:C I *D sky130_fd_sc_hd__nor4_1
*I *428:X O *D sky130_fd_sc_hd__o2bb2a_1
*CAP
1 *560:A 0.000338693
2 *431:C 0.000643662
3 *428:X 0
4 *173:4 0.000982356
5 *431:C *561:A 0.000266473
6 *431:C *182:12 5.33978e-05
7 *431:C *182:16 2.42547e-05
8 *399:B *431:C 3.15514e-05
9 *408:A2 *431:C 0
10 *413:A *431:C 2.59355e-05
11 *418:A1 *431:C 0.000128496
12 *418:B1 *431:C 2.44318e-05
13 *421:A2 *560:A 2.42516e-05
14 *423:C *560:A 4.46186e-06
15 *428:A1_N *560:A 1.37693e-05
16 *428:A2_N *560:A 9.71197e-05
17 *428:B1 *560:A 2.27416e-05
18 *428:B2 *560:A 6.75007e-05
19 *433:A2 *431:C 5.90443e-06
20 *434:A2 *560:A 4.06875e-05
21 *529:B *431:C 5.41794e-05
22 *40:10 *431:C 5.71472e-05
23 *54:10 *431:C 0
24 *55:8 *431:C 0.000495276
25 *56:16 *431:C 9.74698e-05
26 *61:33 *431:C 4.13595e-05
27 *61:33 *560:A 7.08933e-05
28 *72:18 *431:C 7.05447e-05
29 *72:24 *431:C 0.000147474
30 *73:10 *431:C 0.000724646
31 *76:6 *560:A 2.07491e-05
32 *159:10 *431:C 5.66157e-05
*RES
1 *428:X *173:4 9.3 
2 *173:4 *431:C 37.0679 
3 *173:4 *560:A 25.1571 
*END

*D_NET *174 0.000928507
*CONN
*I *561:A I *D sky130_fd_sc_hd__buf_2
*I *431:Y O *D sky130_fd_sc_hd__nor4_1
*CAP
1 *561:A 0.000271832
2 *431:Y 0.000271832
3 *413:A *561:A 4.00121e-05
4 *414:A2_N *561:A 7.83587e-05
5 *431:C *561:A 0.000266473
*RES
1 *431:Y *561:A 32.1357 
*END

*D_NET *175 0.0074171
*CONN
*I *435:A I *D sky130_fd_sc_hd__inv_2
*I *492:C I *D sky130_fd_sc_hd__and3b_1
*I *466:A I *D sky130_fd_sc_hd__nand2_1
*I *465:A I *D sky130_fd_sc_hd__or2_1
*I *488:A1_N I *D sky130_fd_sc_hd__o2bb2a_1
*I *475:A1 I *D sky130_fd_sc_hd__o22a_1
*I *460:A1 I *D sky130_fd_sc_hd__a21bo_1
*I *545:X O *D sky130_fd_sc_hd__clkbuf_2
*CAP
1 *435:A 0.000331479
2 *492:C 0
3 *466:A 0
4 *465:A 4.18371e-05
5 *488:A1_N 0.000274904
6 *475:A1 0.000150174
7 *460:A1 0.000226229
8 *545:X 0
9 *175:67 0.000435152
10 *175:57 0.000474053
11 *175:12 0.000420128
12 *175:10 0.000715923
13 *175:8 0.000569833
14 *175:4 0.000423281
15 *429:D *175:10 0
16 *460:A2 *460:A1 5.33005e-05
17 *462:B1 *460:A1 0
18 *465:B *465:A 0.00010096
19 *465:B *175:67 4.38128e-05
20 *475:A2 *475:A1 1.59373e-05
21 *475:B2 *460:A1 3.27461e-05
22 *475:B2 *175:10 8.71005e-05
23 *475:B2 *175:12 4.51972e-05
24 *476:A1 *488:A1_N 0.00011097
25 *476:B1 *175:10 7.6644e-05
26 *476:B1 *175:12 7.83587e-05
27 *477:B1 *460:A1 0
28 *477:B1 *488:A1_N 0.000137983
29 *477:B1 *175:12 7.80714e-06
30 *486:B *175:10 0.000191163
31 *487:B2 *475:A1 5.52302e-05
32 *491:A1 *175:67 9.83388e-05
33 *491:B1 *175:67 0.000220441
34 *491:C1 *175:67 0.000153047
35 *492:A_N *175:67 6.85372e-05
36 *493:A1 *175:10 0.000113213
37 *494:A *175:67 9.35114e-06
38 *495:C1 *175:10 3.57844e-05
39 *504:C1 *175:8 0
40 *504:C1 *175:57 0.0001839
41 *545:A *435:A 0.000100262
42 *556:A *175:8 0
43 *556:A *175:10 0
44 *83:20 *460:A1 2.34204e-05
45 *92:54 *475:A1 1.13883e-05
46 *96:18 *488:A1_N 0.000227202
47 *105:71 *460:A1 0.000177853
48 *105:71 *475:A1 3.97677e-05
49 *106:14 *488:A1_N 1.04232e-05
50 *106:20 *488:A1_N 0.000191937
51 *121:34 *465:A 0.000188586
52 *121:34 *175:67 5.52238e-05
53 *133:29 *175:57 0.000148996
54 *134:18 *175:10 0.000146474
55 *141:12 *175:57 2.93922e-05
56 *141:12 *175:67 1.83136e-05
57 *152:12 *175:67 0
58 *155:12 *175:67 9.81113e-06
59 *166:16 *460:A1 5.52302e-05
*RES
1 *545:X *175:4 9.3 
2 *175:4 *175:8 5.83929 
3 *175:8 *175:10 8.625 
4 *175:10 *175:12 1.33929 
5 *175:12 *460:A1 18.0321 
6 *175:12 *475:A1 16.4071 
7 *175:10 *488:A1_N 19.6973 
8 *175:8 *175:57 7.08929 
9 *175:57 *175:67 17.3393 
10 *175:67 *465:A 11.0679 
11 *175:67 *466:A 9.3 
12 *175:57 *492:C 9.3 
13 *175:4 *435:A 14.8 
*END

*D_NET *176 0.00701291
*CONN
*I *438:A I *D sky130_fd_sc_hd__nor2_2
*I *455:C I *D sky130_fd_sc_hd__and3b_1
*I *457:A I *D sky130_fd_sc_hd__or3_2
*I *487:A1 I *D sky130_fd_sc_hd__o32a_1
*I *444:A I *D sky130_fd_sc_hd__or3b_4
*I *440:A I *D sky130_fd_sc_hd__nor3b_2
*I *445:C I *D sky130_fd_sc_hd__nand3b_4
*I *442:B1 I *D sky130_fd_sc_hd__a221oi_1
*I *447:A I *D sky130_fd_sc_hd__and3_2
*I *441:A I *D sky130_fd_sc_hd__or3b_2
*I *530:X O *D sky130_fd_sc_hd__buf_2
*CAP
1 *438:A 0
2 *455:C 0
3 *457:A 0
4 *487:A1 0.000135217
5 *444:A 0.000126812
6 *440:A 9.41847e-06
7 *445:C 7.95876e-05
8 *442:B1 0.000133484
9 *447:A 5.25758e-05
10 *441:A 9.23803e-05
11 *530:X 3.4256e-05
12 *176:87 0.000316556
13 *176:83 0.000132742
14 *176:79 0.000323798
15 *176:75 0.000379805
16 *176:53 0.000197384
17 *176:18 0.000412575
18 *176:14 0.000574782
19 *176:10 0.000331325
20 *176:8 0.000217746
21 *441:A *441:B 6.05161e-06
22 *442:B1 *442:C1 1.58163e-05
23 *444:A *444:B 4.19409e-05
24 *445:C *445:B 0
25 *445:C *178:29 8.07313e-05
26 *447:A *447:B 6.19181e-05
27 *487:A1 *437:B 0
28 *487:A1 *177:70 0
29 *487:A1 *177:76 0
30 *176:10 *177:10 5.69387e-05
31 *176:14 *442:A2 5.59013e-05
32 *176:14 *442:C1 2.61337e-05
33 *176:14 *177:10 2.49484e-05
34 *176:14 *177:12 6.5273e-05
35 *176:18 *441:B 0.000326832
36 *176:18 *177:37 0.000131439
37 *176:53 *178:27 4.58194e-05
38 *176:53 *178:29 2.14658e-05
39 *176:75 *457:C 0
40 *176:75 *178:94 0.000186662
41 *176:79 *457:C 0.000185643
42 *176:79 *178:94 0.00011674
43 *176:83 *457:C 0.000144773
44 *443:B2 *176:18 4.58976e-05
45 *454:C_N *176:10 0.000117903
46 *454:C_N *176:14 0.000261385
47 *456:A *176:75 5.33005e-05
48 *487:A3 *487:A1 5.80706e-06
49 *487:B2 *444:A 0.000183521
50 *487:B2 *487:A1 0.000192585
51 *488:B1 *487:A1 0
52 *542:A *176:8 0.000128161
53 *542:A *176:10 4.58764e-05
54 *92:16 *176:14 4.97121e-06
55 *96:12 *444:A 2.44318e-05
56 *97:8 *447:A 0.000125724
57 *105:12 *176:18 0.000268403
58 *106:6 *176:83 9.90431e-05
59 *106:14 *176:83 1.82029e-05
60 *106:14 *176:87 9.50762e-05
61 *106:79 *444:A 3.25247e-05
62 *161:10 *442:B1 1.40034e-05
63 *163:12 *176:8 0.00011891
64 *163:12 *176:10 3.17148e-05
*RES
1 *530:X *176:8 15.4429 
2 *176:8 *176:10 1.94643 
3 *176:10 *176:14 8.57143 
4 *176:14 *176:18 7.125 
5 *176:18 *441:A 10.675 
6 *176:18 *447:A 19.9429 
7 *176:14 *442:B1 11.0857 
8 *176:10 *176:53 6.28571 
9 *176:53 *445:C 11.0857 
10 *176:53 *440:A 9.72857 
11 *176:8 *176:75 7.51786 
12 *176:75 *176:79 5.07143 
13 *176:79 *176:83 2.19643 
14 *176:83 *176:87 5.85714 
15 *176:87 *444:A 17.1393 
16 *176:87 *487:A1 16.6571 
17 *176:83 *457:A 9.3 
18 *176:79 *455:C 9.3 
19 *176:75 *438:A 9.3 
*END

*D_NET *177 0.00708579
*CONN
*I *437:A I *D sky130_fd_sc_hd__nand2_1
*I *455:B I *D sky130_fd_sc_hd__and3b_1
*I *457:B I *D sky130_fd_sc_hd__or3_2
*I *445:A_N I *D sky130_fd_sc_hd__nand3b_4
*I *444:C_N I *D sky130_fd_sc_hd__or3b_4
*I *447:B I *D sky130_fd_sc_hd__and3_2
*I *440:B I *D sky130_fd_sc_hd__nor3b_2
*I *454:A I *D sky130_fd_sc_hd__or3b_2
*I *441:B I *D sky130_fd_sc_hd__or3b_2
*I *442:C1 I *D sky130_fd_sc_hd__a221oi_1
*I *531:X O *D sky130_fd_sc_hd__clkbuf_2
*CAP
1 *437:A 3.24424e-05
2 *455:B 0
3 *457:B 9.43288e-05
4 *445:A_N 0
5 *444:C_N 4.40688e-05
6 *447:B 0.000237433
7 *440:B 0
8 *454:A 0
9 *441:B 0.000248848
10 *442:C1 0.000142055
11 *531:X 8.70292e-05
12 *177:103 0.000136237
13 *177:76 0.000512536
14 *177:70 0.000347578
15 *177:66 0.000420784
16 *177:37 0.000452623
17 *177:12 0.00041358
18 *177:10 0.000173689
19 *177:6 0.000506674
20 *444:C_N *178:33 5.33334e-05
21 *457:B *457:C 5.76121e-05
22 *177:37 *454:B 9.25014e-06
23 *177:70 *437:B 0.00012401
24 *177:76 *437:B 3.34295e-05
25 *177:76 *178:33 4.72917e-05
26 *177:103 *457:C 1.39726e-05
27 *438:B *177:66 0.000167988
28 *438:B *177:76 0
29 *441:A *441:B 6.05161e-06
30 *442:B1 *442:C1 1.58163e-05
31 *443:B2 *441:B 5.52302e-05
32 *443:B2 *177:37 0.00014285
33 *447:A *447:B 6.19181e-05
34 *454:C_N *177:37 7.6644e-05
35 *456:B *177:10 0.000128146
36 *487:A1 *177:70 0
37 *487:A1 *177:76 0
38 *487:A2 *437:A 1.40724e-05
39 *487:A2 *177:66 6.05161e-06
40 *530:A *177:66 5.52238e-05
41 *532:A *177:10 7.444e-06
42 *542:A *177:10 0.000165157
43 *90:8 *177:37 0
44 *90:8 *177:76 0
45 *92:8 *177:10 3.51442e-05
46 *92:8 *177:12 4.66511e-05
47 *92:16 *442:C1 5.41794e-05
48 *92:16 *177:12 9.82592e-05
49 *97:8 *447:B 0.000109602
50 *106:79 *447:B 0.00015679
51 *106:79 *177:76 0
52 *107:79 *437:A 5.33374e-05
53 *107:79 *177:6 1.65169e-05
54 *107:79 *177:66 0.000395675
55 *161:10 *441:B 4.86324e-05
56 *161:10 *442:C1 9.60939e-05
57 *161:10 *177:10 7.31026e-05
58 *161:10 *177:37 0.000178847
59 *176:10 *177:10 5.69387e-05
60 *176:14 *442:C1 2.61337e-05
61 *176:14 *177:10 2.49484e-05
62 *176:14 *177:12 6.5273e-05
63 *176:18 *441:B 0.000326832
64 *176:18 *177:37 0.000131439
*RES
1 *531:X *177:6 10.2464 
2 *177:6 *177:10 8.57143 
3 *177:10 *177:12 1.94643 
4 *177:12 *442:C1 16.7286 
5 *177:12 *177:37 17.6607 
6 *177:37 *441:B 15.2286 
7 *177:37 *454:A 9.3 
8 *177:10 *440:B 13.8 
9 *177:6 *177:66 8.25 
10 *177:66 *177:70 6.14286 
11 *177:70 *177:76 8.60714 
12 *177:76 *447:B 24.1929 
13 *177:76 *444:C_N 10.2464 
14 *177:76 *445:A_N 9.3 
15 *177:70 *177:103 5.03571 
16 *177:103 *457:B 10.6571 
17 *177:103 *455:B 9.3 
18 *177:66 *437:A 10.2286 
*END

*D_NET *178 0.0081962
*CONN
*I *440:C_N I *D sky130_fd_sc_hd__nor3b_2
*I *455:A_N I *D sky130_fd_sc_hd__and3b_1
*I *457:C I *D sky130_fd_sc_hd__or3_2
*I *437:B I *D sky130_fd_sc_hd__nand2_1
*I *454:B I *D sky130_fd_sc_hd__or3b_2
*I *445:B I *D sky130_fd_sc_hd__nand3b_4
*I *441:C_N I *D sky130_fd_sc_hd__or3b_2
*I *447:C I *D sky130_fd_sc_hd__and3_2
*I *444:B I *D sky130_fd_sc_hd__or3b_4
*I *442:B2 I *D sky130_fd_sc_hd__a221oi_1
*I *532:X O *D sky130_fd_sc_hd__buf_2
*CAP
1 *440:C_N 0
2 *455:A_N 0
3 *457:C 0.000100649
4 *437:B 0.000157329
5 *454:B 0.000205829
6 *445:B 2.23854e-05
7 *441:C_N 0
8 *447:C 0.000116934
9 *444:B 6.1683e-05
10 *442:B2 0.000166806
11 *532:X 0.000221234
12 *178:94 0.000611104
13 *178:73 0.000558954
14 *178:46 0.000197765
15 *178:33 0.00032461
16 *178:29 0.000302275
17 *178:27 0.000310385
18 *178:23 0.000212591
19 *178:8 0.00038804
20 *447:C *184:24 0.00018372
21 *438:B *437:B 0
22 *438:B *178:94 0
23 *444:A *444:B 4.19409e-05
24 *444:C_N *178:33 5.33334e-05
25 *445:C *445:B 0
26 *445:C *178:29 8.07313e-05
27 *454:C_N *454:B 8.65019e-05
28 *454:C_N *178:94 0.000198705
29 *457:B *457:C 5.76121e-05
30 *487:A1 *437:B 0
31 *487:B1 *437:B 0
32 *487:B2 *444:B 1.63453e-05
33 *532:A *178:8 0.000176274
34 *90:8 *454:B 0
35 *90:8 *178:94 0
36 *92:16 *442:B2 2.39779e-05
37 *92:54 *444:B 0.000194819
38 *92:54 *178:27 0.000207274
39 *92:54 *178:29 0.000330582
40 *92:54 *178:33 0.0005244
41 *93:27 *447:C 4.78056e-05
42 *96:12 *444:B 2.32517e-05
43 *96:12 *178:33 2.51343e-06
44 *106:79 *447:C 0.000173083
45 *106:79 *178:46 0.000150611
46 *107:14 *442:B2 1.60258e-05
47 *107:14 *178:8 4.79842e-05
48 *107:79 *178:8 0.000100793
49 *108:14 *447:C 0
50 *108:14 *178:46 0
51 *153:18 *447:C 0.000181796
52 *161:10 *442:B2 0.000155391
53 *161:10 *454:B 0.00010096
54 *161:10 *178:8 8.72055e-05
55 *163:12 *178:94 4.49293e-05
56 *176:53 *178:27 4.58194e-05
57 *176:53 *178:29 2.14658e-05
58 *176:75 *457:C 0
59 *176:75 *178:94 0.000186662
60 *176:79 *457:C 0.000185643
61 *176:79 *178:94 0.00011674
62 *176:83 *457:C 0.000144773
63 *177:37 *454:B 9.25014e-06
64 *177:70 *437:B 0.00012401
65 *177:76 *437:B 3.34295e-05
66 *177:76 *178:33 4.72917e-05
67 *177:103 *457:C 1.39726e-05
*RES
1 *532:X *178:8 20.3 
2 *178:8 *442:B2 17.3179 
3 *178:8 *178:23 4.5 
4 *178:23 *178:27 3.83929 
5 *178:27 *178:29 3.41071 
6 *178:29 *178:33 5.48214 
7 *178:33 *444:B 11.4964 
8 *178:33 *178:46 6.44643 
9 *178:46 *447:C 17.8179 
10 *178:46 *441:C_N 13.8 
11 *178:29 *445:B 9.72857 
12 *178:27 *178:73 4.5 
13 *178:73 *454:B 17.05 
14 *178:73 *178:94 12.3036 
15 *178:94 *437:B 21.4964 
16 *178:94 *457:C 13.0321 
17 *178:94 *455:A_N 9.3 
18 *178:23 *440:C_N 9.3 
*END

*D_NET *179 0.00741691
*CONN
*I *484:A I *D sky130_fd_sc_hd__xnor2_2
*I *503:B I *D sky130_fd_sc_hd__and2b_1
*I *482:A I *D sky130_fd_sc_hd__nor2_1
*I *481:A I *D sky130_fd_sc_hd__nand2_1
*I *480:A I *D sky130_fd_sc_hd__and2_1
*I *474:A1 I *D sky130_fd_sc_hd__a22o_1
*I *489:B2 I *D sky130_fd_sc_hd__o2bb2a_1
*I *511:A1 I *D sky130_fd_sc_hd__a211o_1
*I *546:X O *D sky130_fd_sc_hd__buf_2
*CAP
1 *484:A 0.000186498
2 *503:B 0
3 *482:A 4.81062e-05
4 *481:A 1.4261e-05
5 *480:A 0
6 *474:A1 0.00021429
7 *489:B2 0.000165718
8 *511:A1 0.000524741
9 *546:X 0.00013128
10 *179:84 0.000236571
11 *179:64 8.27201e-05
12 *179:57 0.000125769
13 *179:22 0.00106923
14 *179:16 0.00100653
15 *179:10 0.000599632
16 *179:8 0.000262103
17 *511:A1 *407:B2 0
18 *407:A2 *511:A1 4.34988e-05
19 *429:D *179:16 0
20 *448:B1 *179:22 7.17932e-05
21 *480:B *481:A 3.99614e-06
22 *480:B *482:A 4.88637e-05
23 *480:B *179:57 5.62995e-05
24 *480:B *179:64 2.44318e-05
25 *482:B *482:A 3.76337e-05
26 *483:A *179:8 2.58997e-05
27 *483:A *179:10 3.55407e-05
28 *483:A *179:16 3.17163e-05
29 *483:B *482:A 5.17614e-05
30 *483:B *484:A 7.32955e-05
31 *483:B *179:8 0
32 *483:B *179:10 0
33 *483:B *179:84 5.33433e-05
34 *489:A2_N *179:22 2.21972e-05
35 *490:B *179:16 0.000153047
36 *490:C *179:16 0.000231966
37 *490:C *179:22 0.000176596
38 *493:B1 *179:16 0.00026027
39 *493:B1 *179:22 1.19309e-05
40 *493:B1 *179:57 1.39726e-05
41 *495:A1 *179:16 0
42 *503:A_N *484:A 0.0001399
43 *510:B1 *511:A1 0
44 *510:B1 *179:22 0
45 *511:A2 *511:A1 1.859e-05
46 *511:B1 *511:A1 0.0004615
47 *556:A *179:8 0
48 *91:28 *179:22 8.33567e-05
49 *96:12 *179:16 7.83366e-05
50 *96:65 *489:B2 8.84157e-05
51 *99:35 *474:A1 5.98758e-05
52 *99:53 *179:22 7.1002e-05
53 *99:66 *511:A1 9.74684e-05
54 *99:66 *179:22 6.16936e-05
55 *99:72 *511:A1 2.22043e-05
56 *108:14 *511:A1 0
57 *108:14 *179:22 0
58 *129:6 *179:57 2.89114e-05
59 *132:12 *179:10 7.83659e-05
60 *133:23 *484:A 1.56e-05
61 *153:18 *179:22 0
62 *156:8 *179:8 0
63 *156:12 *179:10 0
64 *156:12 *179:16 0
65 *156:14 *481:A 5.7661e-06
66 *156:14 *482:A 1.04232e-05
*RES
1 *546:X *179:8 16.05 
2 *179:8 *179:10 1.94643 
3 *179:10 *179:16 11.1071 
4 *179:16 *179:22 8.375 
5 *179:22 *511:A1 24.2643 
6 *179:22 *489:B2 15.9786 
7 *179:16 *474:A1 16.8 
8 *179:10 *179:57 6.67857 
9 *179:57 *480:A 9.3 
10 *179:57 *179:64 0.535714 
11 *179:64 *481:A 9.72857 
12 *179:64 *482:A 11.0857 
13 *179:8 *179:84 5.44643 
14 *179:84 *503:B 9.3 
15 *179:84 *484:A 13.0321 
*END

*D_NET *180 0.00733086
*CONN
*I *508:A I *D sky130_fd_sc_hd__nor2_1
*I *489:A1_N I *D sky130_fd_sc_hd__o2bb2a_1
*I *521:A1_N I *D sky130_fd_sc_hd__o2bb2a_1
*I *497:A I *D sky130_fd_sc_hd__nand2_2
*I *496:A I *D sky130_fd_sc_hd__or2_1
*I *436:A I *D sky130_fd_sc_hd__inv_2
*I *526:C I *D sky130_fd_sc_hd__and3b_1
*I *547:X O *D sky130_fd_sc_hd__clkbuf_2
*CAP
1 *508:A 0
2 *489:A1_N 0.000184704
3 *521:A1_N 4.06982e-05
4 *497:A 1.67212e-05
5 *496:A 0
6 *436:A 0
7 *526:C 0.000364351
8 *547:X 5.05962e-05
9 *180:66 0.00100424
10 *180:54 0.00113485
11 *180:39 0.0004256
12 *180:32 0.000178723
13 *180:10 0.000433622
14 *180:6 0.00024572
15 *521:A1_N *181:94 0.00013636
16 *490:C *489:A1_N 2.44318e-05
17 *498:A *180:39 5.33005e-05
18 *506:A1 *180:54 9.90367e-05
19 *506:B1 *180:54 0.000402784
20 *508:B *180:54 3.47793e-05
21 *509:A2 *521:A1_N 0.00013829
22 *509:B1 *180:39 0.000142856
23 *509:B1 *180:54 0.000296203
24 *510:B1 *489:A1_N 1.18451e-05
25 *511:C1 *489:A1_N 0.000134351
26 *511:C1 *180:66 1.90936e-05
27 *521:B1 *489:A1_N 1.36251e-05
28 *521:B1 *180:66 7.69776e-06
29 *521:B2 *489:A1_N 0.000125724
30 *523:B *180:66 2.53592e-05
31 *524:A2 *180:54 5.52238e-05
32 *526:A_N *526:C 6.62783e-05
33 *526:B *526:C 4.0342e-06
34 *537:A *526:C 0
35 *547:A *180:10 9.60337e-06
36 *39:35 *180:66 0
37 *90:50 *180:66 2.11419e-05
38 *91:28 *489:A1_N 0.000274294
39 *96:37 *489:A1_N 9.25014e-06
40 *96:48 *489:A1_N 5.33005e-05
41 *96:65 *489:A1_N 0.00033088
42 *105:34 *489:A1_N 2.16719e-05
43 *106:41 *489:A1_N 4.038e-06
44 *145:8 *180:39 5.52302e-05
45 *145:24 *526:C 0
46 *152:23 *180:54 0.000175493
47 *157:6 *526:C 1.92905e-05
48 *157:12 *526:C 0.000177948
49 *157:12 *180:10 0.000125724
50 *157:23 *497:A 1.04232e-05
51 *157:23 *180:32 3.71854e-05
52 *157:23 *180:39 9.61455e-05
53 *157:23 *180:54 3.81329e-05
*RES
1 *547:X *180:6 9.83571 
2 *180:6 *180:10 6.14286 
3 *180:10 *526:C 20.7821 
4 *180:10 *436:A 13.8 
5 *180:6 *180:32 1.78571 
6 *180:32 *496:A 9.3 
7 *180:32 *180:39 2.17857 
8 *180:39 *497:A 9.72857 
9 *180:39 *180:54 10.8571 
10 *180:54 *180:66 13.0736 
11 *180:66 *521:A1_N 15.1705 
12 *180:66 *489:A1_N 20.2152 
13 *180:54 *508:A 9.3 
*END

*D_NET *181 0.00766429
*CONN
*I *509:A1 I *D sky130_fd_sc_hd__a221o_1
*I *522:B2 I *D sky130_fd_sc_hd__o2bb2a_1
*I *407:B2 I *D sky130_fd_sc_hd__a22o_1
*I *401:B I *D sky130_fd_sc_hd__nand2b_1
*I *515:A I *D sky130_fd_sc_hd__or2_1
*I *513:A I *D sky130_fd_sc_hd__nand2_1
*I *514:A I *D sky130_fd_sc_hd__nor2_1
*I *548:X O *D sky130_fd_sc_hd__clkbuf_2
*CAP
1 *509:A1 0
2 *522:B2 0
3 *407:B2 0.000111873
4 *401:B 0
5 *515:A 0
6 *513:A 7.93672e-05
7 *514:A 1.72994e-05
8 *548:X 0.000434682
9 *181:94 0.000618537
10 *181:68 0.00120389
11 *181:39 0.000174145
12 *181:37 0.000290778
13 *181:18 0.000245985
14 *181:14 0.00116459
15 *407:B2 *406:A1 5.80706e-06
16 *181:94 *522:A1_N 0.000180914
17 *407:A2 *407:B2 8.59278e-05
18 *502:A1 *181:68 0
19 *509:A2 *181:94 0.000323706
20 *509:B1 *181:94 3.45371e-05
21 *511:A1 *407:B2 0
22 *512:A2 *181:68 0
23 *512:A2 *181:94 2.58137e-05
24 *512:A3 *181:68 0
25 *512:B1 *181:68 0.000124529
26 *513:B *513:A 7.90616e-05
27 *513:B *181:39 0.00010096
28 *520:A2_N *181:68 0
29 *521:A1_N *181:94 0.00013636
30 *523:C *181:68 2.11419e-05
31 *523:C *181:94 0.000454569
32 *528:A1 *181:18 1.58163e-05
33 *528:A1 *181:37 6.01991e-05
34 *528:B1 *181:68 0.000472169
35 *558:A *181:14 0
36 *41:10 *181:37 0
37 *83:20 *181:68 0
38 *83:20 *181:94 4.89833e-05
39 *90:39 *181:68 0.000150618
40 *90:50 *181:68 0.000158306
41 *99:66 *407:B2 2.63433e-05
42 *107:39 *407:B2 5.71472e-05
43 *108:14 *407:B2 5.53592e-05
44 *145:24 *181:68 4.33438e-05
45 *146:57 *181:68 0
46 *158:18 *181:14 8.13512e-05
47 *158:18 *181:37 2.84026e-05
48 *158:20 *181:37 2.23592e-05
49 *158:29 *513:A 0
50 *158:29 *514:A 1.17091e-05
51 *158:29 *181:37 6.61814e-05
52 *158:29 *181:39 0.000172039
53 *171:14 *181:14 5.83233e-05
54 *171:14 *181:68 0.000221163
*RES
1 *548:X *181:14 19.1929 
2 *181:14 *181:18 5.03571 
3 *181:18 *514:A 9.72857 
4 *181:18 *181:37 12.058 
5 *181:37 *181:39 2.58482 
6 *181:39 *513:A 11.5143 
7 *181:39 *515:A 9.3 
8 *181:37 *401:B 9.3 
9 *181:14 *181:68 18.4643 
10 *181:68 *181:94 21.5357 
11 *181:94 *407:B2 21.0857 
12 *181:94 *522:B2 9.3 
13 *181:68 *509:A1 9.3 
*END

*D_NET *182 0.0058856
*CONN
*I *420:B I *D sky130_fd_sc_hd__and2b_1
*I *399:A I *D sky130_fd_sc_hd__nand2_1
*I *529:A I *D sky130_fd_sc_hd__or2_1
*I *426:B2 I *D sky130_fd_sc_hd__a2bb2o_1
*I *406:A1 I *D sky130_fd_sc_hd__o22a_1
*I *522:A1_N I *D sky130_fd_sc_hd__o2bb2a_1
*I *549:X O *D sky130_fd_sc_hd__buf_1
*CAP
1 *420:B 4.3762e-05
2 *399:A 0
3 *529:A 0
4 *426:B2 0
5 *406:A1 0.0001197
6 *522:A1_N 0.00015464
7 *549:X 0.000421987
8 *182:32 0.000387139
9 *182:30 0.00061224
10 *182:20 0.000550336
11 *182:16 0.000158861
12 *182:12 0.000573715
13 *182:30 *407:A1 5.03787e-05
14 *399:B *420:B 5.42333e-06
15 *399:B *182:16 5.39972e-05
16 *406:B1 *182:30 0.000100075
17 *407:B1 *182:30 5.01213e-05
18 *407:B2 *406:A1 5.80706e-06
19 *408:A2 *182:30 0.000130197
20 *408:B1 *182:30 0.00015304
21 *414:B2 *182:30 0.000270243
22 *422:A *182:12 5.23142e-05
23 *422:B *182:12 2.90075e-05
24 *423:C *182:12 6.78055e-06
25 *427:B *182:30 0
26 *431:C *182:12 5.33978e-05
27 *431:C *182:16 2.42547e-05
28 *509:A2 *522:A1_N 1.87592e-05
29 *522:B1 *522:A1_N 2.44318e-05
30 *522:B1 *182:30 5.52238e-05
31 *522:B1 *182:32 0.000303368
32 *529:B *182:16 0.000153273
33 *529:B *182:20 3.01979e-05
34 *529:B *182:30 0
35 *54:10 *182:30 0.000102892
36 *55:8 *182:16 2.44318e-05
37 *55:8 *182:20 0.000144773
38 *55:8 *182:30 9.77274e-05
39 *56:16 *182:30 0.00015134
40 *56:42 *182:30 5.47391e-05
41 *72:24 *182:12 2.51343e-06
42 *73:10 *182:12 0.000101545
43 *73:10 *182:16 2.65105e-05
44 *97:44 *406:A1 3.51442e-05
45 *99:66 *406:A1 0
46 *105:24 *182:30 2.14658e-05
47 *105:24 *182:32 0.000108447
48 *106:79 *182:30 1.76039e-05
49 *108:14 *406:A1 0.000222885
50 *181:94 *522:A1_N 0.000180914
*RES
1 *549:X *182:12 24.2821 
2 *182:12 *182:16 3.01786 
3 *182:16 *182:20 1.78571 
4 *182:20 *182:30 22.9643 
5 *182:30 *182:32 3 
6 *182:32 *522:A1_N 12.8848 
7 *182:32 *406:A1 21.1571 
8 *182:30 *426:B2 9.3 
9 *182:20 *529:A 9.3 
10 *182:16 *399:A 9.3 
11 *182:12 *420:B 10.3357 
*END

*D_NET *183 0.00473072
*CONN
*I *415:A I *D sky130_fd_sc_hd__or2_1
*I *416:A I *D sky130_fd_sc_hd__nand2_1
*I *426:A1_N I *D sky130_fd_sc_hd__a2bb2o_1
*I *407:A1 I *D sky130_fd_sc_hd__a22o_1
*I *432:B I *D sky130_fd_sc_hd__nand2b_1
*I *550:X O *D sky130_fd_sc_hd__clkbuf_1
*CAP
1 *415:A 8.90804e-05
2 *416:A 1.53865e-05
3 *426:A1_N 0
4 *407:A1 0.000265784
5 *432:B 7.06585e-06
6 *550:X 0.000180569
7 *183:35 0.000603413
8 *183:29 0.000621572
9 *183:12 0.000392871
10 *183:10 0.000386898
11 *407:A2 *407:A1 5.33005e-05
12 *407:B1 *407:A1 0.000177821
13 *415:B *183:12 1.00375e-05
14 *416:B *416:A 1.97695e-05
15 *416:B *183:29 0.000194352
16 *417:A *183:12 0.000275101
17 *424:A *183:35 5.33005e-05
18 *424:B *416:A 0
19 *424:B *183:29 2.42662e-05
20 *424:B *183:35 0.000125057
21 *427:B *407:A1 0
22 *427:B *183:35 0
23 *427:D *407:A1 5.10822e-05
24 *428:A1_N *183:10 3.9745e-05
25 *428:B2 *183:10 7.6644e-05
26 *434:A2 *183:10 0
27 *434:A2 *183:12 0
28 *434:B1 *415:A 3.18676e-05
29 *434:B1 *183:12 0.000104974
30 *70:8 *415:A 0.000105163
31 *70:12 *183:10 3.34295e-05
32 *70:12 *183:12 0.000117189
33 *90:10 *183:29 0
34 *92:16 *183:12 0.000128941
35 *92:16 *183:29 2.61337e-05
36 *97:8 *183:35 6.98302e-05
37 *97:14 *183:35 0.00015134
38 *106:79 *183:35 0
39 *107:39 *407:A1 0.000180249
40 *160:21 *432:B 1.28809e-05
41 *160:21 *183:29 5.52238e-05
42 *182:30 *407:A1 5.03787e-05
*RES
1 *550:X *183:10 16.6929 
2 *183:10 *183:12 4.98214 
3 *183:12 *432:B 13.9295 
4 *183:12 *183:29 8.66071 
5 *183:29 *183:35 11.0714 
6 *183:35 *407:A1 19.5679 
7 *183:35 *426:A1_N 13.8 
8 *183:29 *416:A 9.72857 
9 *183:10 *415:A 16.1036 
*END

*D_NET *184 0.00359983
*CONN
*I *442:A2 I *D sky130_fd_sc_hd__a221oi_1
*I *443:A2 I *D sky130_fd_sc_hd__o22a_1
*I *451:B I *D sky130_fd_sc_hd__nand2b_1
*I *439:B I *D sky130_fd_sc_hd__nand2_1
*I *551:X O *D sky130_fd_sc_hd__clkbuf_1
*CAP
1 *442:A2 0.000119906
2 *443:A2 0
3 *451:B 9.31712e-05
4 *439:B 0
5 *551:X 0.00017918
6 *184:24 0.000333174
7 *184:18 0.00040744
8 *184:12 0.000466523
9 *439:A *451:B 5.33005e-05
10 *442:A1 *442:A2 0.000150625
11 *443:B2 *442:A2 0
12 *447:C *184:24 0.00018372
13 *448:C1 *451:B 6.74987e-05
14 *448:C1 *184:24 0.000657858
15 *533:A *184:12 3.92757e-05
16 *90:10 *442:A2 0
17 *92:16 *442:A2 5.31541e-05
18 *92:16 *184:12 3.92757e-05
19 *153:6 *184:12 2.95726e-05
20 *153:8 *184:12 1.92905e-05
21 *153:8 *184:18 7.94671e-05
22 *153:18 *451:B 0.000137983
23 *153:18 *184:18 5.71472e-05
24 *153:18 *184:24 0.000376371
25 *176:14 *442:A2 5.59013e-05
*RES
1 *551:X *184:12 21.1036 
2 *184:12 *184:18 3.03571 
3 *184:18 *184:24 8.89286 
4 *184:24 *439:B 9.3 
5 *184:24 *451:B 12.0545 
6 *184:18 *443:A2 9.3 
7 *184:12 *442:A2 21.4607 
*END
